O8
1.0
   3.6265533970522270    4.3616811924970138   -0.0456647588626005
  -3.6265533970522270    4.3616811924970138   -0.0456647588626005
   0.0000000000000000    1.8742457171019387    3.7042602681394161
O
8
direct
   0.6857403605921633    0.2458213882697606    0.1640801189947894 O
   0.7541786117302394    0.3142596394078367    0.8359198810052106 O
   0.3142596394078367    0.7541786117302394    0.8359198810052106 O
   0.2458213882697606    0.6857403605921633    0.1640801189947894 O
   0.7434968076230675    0.7434968076230675    0.1597824045810583 O
   0.2565031923769325    0.2565031923769325    0.8402175954189417 O
   0.8119022976862169    0.8119022976862169    0.8316001079142836 O
   0.1880977023137760    0.1880977023137760    0.1683998920857164 O
