O6
1.0
   4.6529777799999996    0.1421014700000000    3.0193899700000002
   1.7121155800000001    4.3288635800000002    3.0193899599999998
   0.2023027100000000    0.1421014400000000    5.5431029399999998
O
6
direct
   0.0675029300000000    0.9285619600000000    0.7440651100000000 O
   0.9285619600000000    0.7440651100000000    0.0675029300000000 O
   0.7440651100000000    0.0675029300000000    0.9285619600000000 O
   0.2440651100000000    0.4285619600000000    0.5675029300000000 O
   0.5675029300000000    0.2440651100000000    0.4285619600000000 O
   0.4285619600000000    0.5675029300000000    0.2440651100000000 O
