W4 S8
1.0
   3.1831233700000001    0.0000012400000000    0.0000008000000000
   1.5915628600000000    2.7566653799999998    0.0000066200000000
   0.0000175500000000    0.0000849200000000   35.1805582100000009
W S
4 8
direct
   0.6666513600000000    0.6666733200000000    0.2775445000000000 W
   0.6666633500000000    0.6666702799999999    0.6464611099999999 W
   0.3333412300000000    0.3333274100000000    0.0930408500000000 W
   0.3333436800000000    0.3333307900000000    0.4621777200000000 W
   0.6666791100000000    0.6666564300000000    0.0487114700000000 S
   0.6666767600000000    0.6666662300000000    0.4178374200000000 S
   0.3333146200000000    0.3333437000000000    0.2332400400000000 S
   0.3333237900000000    0.3333457800000000    0.6021192700000000 S
   0.6666836500000000    0.6666499299999999    0.1373654500000000 S
   0.6666760900000001    0.6666609200000000    0.5065148100000000 S
   0.3333139200000000    0.3333389000000000    0.3219149000000000 S
   0.3333314200000000    0.3333353000000000    0.6907694500000000 S
