W2 S4
1.0
   3.1832081699999999   -0.0000000100000000    0.0000000000000000
   1.5916030600000000    2.7567394400000000    0.0000000000000000
  -0.0000000000000000   -0.0000000000000000   23.6687632500000014
W S
2 4
direct
   0.6666660000000000    0.6666670000000000    0.4307260400000000 W
   0.3333340000000000    0.3333330000000000    0.1560909600000000 W
   0.6666660000000000    0.6666670000000000    0.0902246100000000 S
   0.3333340000000000    0.3333330000000000    0.3648503300000000 S
   0.6666660000000000    0.6666670000000000    0.2219676700000000 S
   0.3333340000000000    0.3333330000000000    0.4965933900000000 S
