W2 S4
1.0
  -2.6954690000000001    2.6954690000000001    4.9759599999999997
   2.6954690000000001   -2.6954690000000001    4.9759599999999997
   2.6954690000000001    2.6954690000000001   -4.9759599999999997
W S
2 4
direct
   0.7500000000000000    0.2500000000000000    0.5000000000000000 W
   0.0000000000000000    0.0000000000000000    0.0000000000000000 W
   0.8750000000000000    0.8753950000000000    0.5003950000000000 S
   0.1246050000000000    0.6250000000000000    0.9996050000000000 S
   0.3750000000000000    0.3746050000000000    0.4996050000000000 S
   0.6253950000000000    0.1250000000000000    0.0003950000000000 S
