H24 O12
1.0
   5.1992770000000004    2.2230720000000002   -1.5080270000000000
  -8.1374879999999994    4.6672609999999999    5.7823419999999999
   0.8552380000000001   -6.1048010000000001    9.2171230000000008
H O
24 12
direct
   0.1999480000000000    0.6568680000000000    0.1419360000000000 H
   0.6986480000000000    0.1250340000000000    0.6392040000000000 H
   0.9694270000000000    0.3102320000000000    0.2778330000000000 H
   0.8000520000000000    0.3431320000000000    0.8580640000000000 H
   0.3013520000000000    0.8749660000000000    0.3607960000000000 H
   0.0305730000000000    0.6897680000000000    0.7221670000000000 H
   0.8733070000000001    0.4091770000000000    0.1956800000000000 H
   0.5134640000000000    0.8244220000000000    0.6027890000000000 H
   0.4659890000000000    0.1405640000000000    0.1434980000000000 H
   0.1266930000000000    0.5908230000000000    0.8043200000000000 H
   0.4865360000000000    0.1755780000000000    0.3972110000000000 H
   0.5340110000000000    0.8594360000000000    0.8565020000000000 H
   0.2655330000000000    0.2543980000000000    0.4375110000000000 H
   0.9374080000000000    0.3162550000000000    0.7761550000000000 H
   0.8947760000000000    0.9382880000000000    0.9196230000000000 H
   0.7344670000000000    0.7456020000000000    0.5624890000000000 H
   0.0625920000000000    0.6837450000000000    0.2238450000000000 H
   0.1052240000000000    0.0617120000000000    0.0803770000000000 H
   0.2907600000000000    0.3842370000000000    0.5002930000000000 H
   0.8217400000000000    0.9877629999999999    0.6081950000000000 H
   0.8357110000000000    0.0830730000000000    0.7750730000000000 H
   0.7092400000000000    0.6157629999999999    0.4997070000000000 H
   0.1782600000000000    0.0122370000000000    0.3918050000000000 H
   0.1642890000000000    0.9169260000000000    0.2249270000000000 H
   0.0978270000000000    0.6122190000000000    0.2066030000000000 O
   0.6612680000000000    0.8841520000000000    0.5559470000000000 O
   0.8039570000000000    0.3006120000000000    0.2012170000000000 O
   0.9021730000000000    0.3877810000000000    0.7933970000000000 O
   0.3387320000000000    0.1158480000000000    0.4440530000000000 O
   0.1960430000000000    0.6993880000000000    0.7987830000000000 O
   0.8955730000000000    0.1560050000000000    0.7049890000000000 O
   0.7535130000000000    0.9642490000000000    0.8873720000000000 O
   0.2584650000000000    0.3428220000000000    0.4190070000000000 O
   0.1044270000000000    0.8439950000000001    0.2950110000000000 O
   0.2464870000000000    0.0357510000000000    0.1126280000000000 O
   0.7415350000000001    0.6571780000000000    0.5809930000000000 O
