Mo2 S4
1.0
   3.1845408399999999   -0.0000000300000000   -0.0000000000000000
  -1.5922724800000001    2.7578935000000002    0.0000000000000000
  -0.0000000000000000    0.0000000000000000   21.6705347199999991
Mo S
2 4
direct
   0.6666670000000000    0.3333330000000000    0.4478672700000000 Mo
   0.3333330000000000    0.6666670000000000    0.1501877300000000 Mo
   0.3333330000000000    0.6666670000000000    0.5194021100000000 S
   0.6666670000000000    0.3333330000000000    0.2217765000000000 S
   0.3333330000000000    0.6666670000000000    0.3762785000000000 S
   0.6666670000000000    0.3333330000000000    0.0786528900000000 S
