W3 S6
1.0
   3.1829542100000001    0.0000002100000000    0.0000034100000000
   1.5914767800000000    2.7565192999999999    0.0000027200000000
   0.0000302100000000    0.0000144000000000   28.5322178599999994
W S
3 6
direct
   0.6666662600000000    0.6666650100000000    0.3407135700000000 W
   0.3333345400000000    0.3333339000000000    0.1144662200000000 W
   0.3333316700000000    0.3333353600000000    0.5656383200000000 W
   0.6666689800000000    0.6666678300000000    0.0598142700000000 S
   0.6666655100000000    0.6666696400000000    0.5109695800000000 S
   0.3333337500000000    0.3333318600000000    0.2860477900000000 S
   0.6666673300000000    0.6666669000000000    0.1691517200000000 S
   0.6666638600000000    0.6666685999999999    0.6202897500000000 S
   0.3333320900000000    0.3333309100000000    0.3953747900000000 S
