Li4 Fe4 P4 O16
1.0
   0.0005120000000000    4.9425600000000003    0.0000180000000000
   0.0003360000000000    0.0003380000000000    7.4642030000000004
   9.2479910000000007    0.0010710000000000    0.0004700000000000
Li Fe P O
4 4 4 16
direct
   0.9178710000000000    0.1302250000000000    0.0175370000000000 Li
   0.0820530000000000    0.6302530000000000    0.4824450000000000 Li
   0.5820560000000000    0.8696140000000000    0.5175070000000001 Li
   0.4179350000000000    0.3696440000000000    0.9825440000000000 Li
   0.1717680000000000    0.2314490000000000    0.6250150000000000 Fe
   0.8287340000000000    0.7312720000000000    0.8746870000000000 Fe
   0.3290200000000000    0.7686640000000000    0.1252960000000000 Fe
   0.6711220000000000    0.2687120000000000    0.3745600000000000 Fe
   0.8654740000000000    0.5021560000000000    0.1623950000000000 P
   0.1343260000000000    0.0021440000000000    0.3376230000000000 P
   0.6344440000000000    0.4978660000000000    0.6624230000000000 P
   0.3657080000000000    0.9978380000000000    0.8376360000000000 P
   0.7115020000000000    0.6684600000000001    0.0973570000000000 O
   0.2882740000000000    0.1684800000000000    0.4026080000000000 O
   0.7883790000000001    0.3315280000000000    0.5974150000000000 O
   0.2116040000000000    0.8315060000000000    0.9026360000000000 O
   0.7242820000000000    0.3229290000000000    0.1222060000000000 O
   0.2756820000000000    0.8230110000000000    0.3778360000000000 O
   0.7756820000000000    0.6770410000000000    0.6221620000000000 O
   0.2243790000000000    0.1769520000000000    0.8778340000000000 O
   0.1573940000000000    0.5142099999999999    0.1024810000000000 O
   0.8423730000000000    0.0141710000000000    0.3976880000000000 O
   0.3426140000000000    0.4858400000000000    0.6024170000000000 O
   0.6577690000000000    0.9858300000000000    0.8976180000000000 O
   0.1421740000000000    0.0090030000000000    0.1696460000000000 O
   0.8574770000000000    0.5089800000000000    0.3303380000000000 O
   0.3578330000000000    0.9911160000000000    0.6696870000000000 O
   0.6420730000000000    0.4911040000000000    0.8304020000000000 O
