Mo4 S8
1.0
  13.0929655799999995   -3.1843042399999999   -0.1567806000000000
  13.0929655799999995    3.1843042399999999   -0.1567806000000000
   6.1920077800000000    0.0000000000000000    2.6564199999999998
Mo S
4 8
direct
   0.4998875200000000    0.4998875200000000    0.9997750399999998 Mo
   0.4998875200000000    0.9998875200000000    0.9997750399999997 Mo
   0.9998875200000000    0.4998875200000000    0.9997750399999997 Mo
   0.9998875200000003    0.9998875200000003    0.9997750399999998 Mo
   0.2064651100000001    0.2064651100000001    0.4129302200000000 S
   0.2064651100000001    0.7064651100000000    0.4129302200000000 S
   0.7064651100000000    0.2064651100000001    0.4129302200000000 S
   0.7064651100000001    0.7064651100000001    0.4129302199999999 S
   0.1266478700000000    0.1266478700000000    0.2532957400000000 S
   0.1266478700000000    0.6266478700000000    0.2532957400000000 S
   0.6266478700000000    0.1266478700000000    0.2532957400000000 S
   0.6266478700000001    0.6266478700000001    0.2532957400000000 S
