C8 O16
1.0
  -4.8917486200000004   -2.8242530000000001   -4.0518269800000004
  -0.0000000000000000   -5.6485031299999999    4.0518270300000001
  -4.8917486200000004    2.8242530000000001    4.0518269800000004
C O
8 16
direct
   0.5000000000000000    0.5000000000000000    0.5000000000000000 C
   0.0000000000000000    0.0000000000000000   -0.0000000000000000 C
   0.0021174600000000    0.5021174600000000    0.2500000000000000 C
   0.7500000000000000    0.9978825400000000    0.5021174600000000 C
   0.4978825400000000    0.2500000000000000    0.9978825400000000 C
   0.5021174600000000    0.7500000000000000    0.0021174600000000 C
   0.9978825400000000    0.4978825400000000    0.7500000000000000 C
   0.2500000000000000    0.0021174600000000    0.4978825400000000 C
   0.5959923300000000    0.4040076700000000    0.4040076700000000 O
   0.0959923300000000    0.9040076700000000    0.9040076700000000 O
   0.4040076700000000    0.5959923300000000    0.5959923300000000 O
   0.9040076700000000    0.0959923300000000    0.0959923300000000 O
   0.9014430400000000    0.6028795800000000    0.1602942900000000 O
   0.8397057100000000    0.0985569600000000    0.6028795800000000 O
   0.3971204200000000    0.1602942900000000    0.0985569600000000 O
   0.4014430400000000    0.6602942900000000    0.1028795800000000 O
   0.8971204200000000    0.5985569600000000    0.6602942900000000 O
   0.3397057100000000    0.1028795800000000    0.5985569600000000 O
   0.0985569600000000    0.3971204200000000    0.8397057100000000 O
   0.1602942900000000    0.9014430400000000    0.3971204200000000 O
   0.6028795800000000    0.8397057100000000    0.9014430400000000 O
   0.5985569600000000    0.3397057100000000    0.8971204200000000 O
   0.1028795800000000    0.4014430400000000    0.3397057100000000 O
   0.6602942900000000    0.8971204200000000    0.4014430400000000 O
