H16
1.0
   0.0000000000000000    6.6458558099999996    0.0000000000000000
  -0.0000000000000000    0.0000000000000000    5.4869812400000004
   5.7158090499999998    0.0000000000000000   -0.0000000000000000
H
16
direct
   0.7500000000000000    0.5122926200000000    0.3980591100000000 H
   0.7500000000000000    0.9877073800000000    0.8980591100000000 H
   0.2500000000000000    0.4877073800000000    0.6019408900000000 H
   0.2500000000000000    0.0122926200000000    0.1019408900000000 H
   0.7500000000000000    0.4670674100000000    0.5203181400000000 H
   0.7500000000000000    0.0329325900000000    0.0203181400000000 H
   0.2500000000000000    0.5329325900000000    0.4796818600000000 H
   0.2500000000000000    0.9670674100000000    0.9796818600000000 H
   0.9692951400000001    0.9501729000000000    0.4745260700000000 H
   0.5307048599999999    0.5498271000000000    0.9745260700000000 H
   0.4692951400000000    0.0498271000000000    0.5254739300000000 H
   0.0307048600000000    0.4501729000000000    0.0254739300000000 H
   0.0307048600000000    0.0498271000000000    0.5254739300000000 H
   0.4692951400000000    0.4501729000000000    0.0254739300000000 H
   0.5307048599999999    0.9501729000000000    0.4745260700000000 H
   0.9692951400000001    0.5498271000000000    0.9745260700000000 H
