C4 O8
1.0
   4.7614194200051250    0.0000000000000000    0.0000000000000000
   0.0000000000000000    4.7614194200051250    0.0000000000000000
   0.0000000000000000    0.0000000000000000    7.6725644771634398
C O
4 8
direct
   0.0014198136377814    0.9985801863622186    0.7500000000000000 C
   0.9985801863622186    0.0014198136377814    0.2500000000000000 C
   0.4985801863622186    0.4985801863622186    0.5000000000000000 C
   0.5014198136377814    0.5014198136377814    0.0000000000000000 C
   0.6717768904593555    0.3253625541687910    0.5030962618895103 O
   0.3282231095406374    0.6746374458312090    0.0030962618895103 O
   0.8253625541687910    0.8282231095406374    0.2530962618895103 O
   0.1746374458312090    0.1717768904593555    0.7530962618895103 O
   0.6746374458312090    0.3282231095406374    0.9969037381104897 O
   0.3253625541687910    0.6717768904593555    0.4969037381104897 O
   0.8282231095406374    0.8253625541687910    0.7469037381104897 O
   0.1717768904593555    0.1746374458312090    0.2469037381104897 O
