H16
1.0
  10.5964185099999995    0.0000402600000000   -0.0109004100000000
   0.0000134700000000    6.1423144199999999   -0.0046350600000000
  -0.0114178000000000   -0.0053354800000000    6.7830574700000001
H
16
direct
   0.2943105100000000    0.7501788800000000    0.1069958200000000 H
   0.7947264600000000    0.7497477100000000    0.3946358600000000 H
   0.7056389400000000    0.2498226400000000    0.8934387499999999 H
   0.2052198500000000    0.2502466600000000    0.6049390800000000 H
   0.5517386200000000    0.7500278600000000    0.2122288300000000 H
   0.0514425200000000    0.7499248900000000    0.2871116300000000 H
   0.4482735100000000    0.2499678000000000    0.7876054400000000 H
   0.9485693400000000    0.2500768100000000    0.7130517300000000 H
   0.5526331200000000    0.9010393500000000    0.2115542600000000 H
   0.0523208400000000    0.5990334400000000    0.2879102100000000 H
   0.4477522200000000    0.4015337800000000    0.7873031400000000 H
   0.9481276800000000    0.0983946100000000    0.7134586500000000 H
   0.4473878100000000    0.0989611800000000    0.7882890500000000 H
   0.9477004100000000    0.4009685000000000    0.7122505700000000 H
   0.5522690500000000    0.5984687300000000    0.2125375800000000 H
   0.0518911200000000    0.9016041600000000    0.2866893900000000 H
