H8 O4
1.0
   3.7430816199999999    2.1755636500000000   -0.1903349000000000
  -3.7430816199999999    2.1755636500000000   -0.1903349000000000
   0.0000000000000000    0.5263525100000001    7.0186124999999997
H O
8 4
direct
   0.6371555400000000    0.2930474100000000    0.3293871900000000 H
   0.4980048100000000    0.4353067800000000    0.0491127800000000 H
   0.8663689900000000    0.4346118400000000    0.0446526900000000 H
   0.8909800700000000    0.4093803500000000    0.5128241500000000 H
   0.2930474100000000    0.6371555400000000    0.8293871900000001 H
   0.4353067800000000    0.4980048100000000    0.5491127800000000 H
   0.4346118400000000    0.8663689900000000    0.5446526900000001 H
   0.4093803500000000    0.8909800700000000    0.0128241500000000 H
   0.6385415500000000    0.2822387700000000    0.4704704500000000 O
   0.6201241800000000    0.3052307000000000    0.0935537400000000 O
   0.2822387700000000    0.6385415500000000    0.9704704500000000 O
   0.3052307000000000    0.6201241800000000    0.5935537400000001 O
