Li4 Fe4 P4 O16
1.0
  -1.0258010000000000   -0.9004510000000000    5.7275590000000003
   7.4452040000000004    0.6650530000000000    0.3478510000000000
  -3.2301790000000001    8.6315419999999996   -0.8242140000000000
Li Fe P O
4 4 4 16
direct
   0.9965160000000000    0.9911130000000000    0.7509770000000000 Li
   0.0035780000000000    0.0090100000000000    0.2490280000000000 Li
   0.8679820000000000    0.4844950000000000    0.1061760000000000 Li
   0.1320130000000000    0.5154230000000000    0.8938490000000000 Li
   0.5014170000000000    0.0144390000000000    0.7574800000000000 Fe
   0.4986100000000000    0.9854840000000000    0.2425000000000000 Fe
   0.6249040000000000    0.5080110000000000    0.3635430000000000 Fe
   0.3749520000000000    0.4921800000000000    0.6364890000000000 Fe
   0.1838840000000000    0.7512560000000000    0.4394930000000000 P
   0.8160110000000000    0.2487270000000000    0.5605090000000000 P
   0.3035330000000000    0.2497020000000000    0.0610340000000000 P
   0.6965740000000000    0.7502900000000000    0.9389640000000000 P
   0.5564640000000000    0.3722490000000000    0.1381400000000000 O
   0.4435500000000000    0.6278740000000000    0.8619090000000000 O
   0.3585580000000000    0.6119990000000000    0.4548720000000000 O
   0.6413550000000000    0.3880330000000000    0.5451510000000001 O
   0.9377110000000000    0.6325860000000000    0.3548740000000000 O
   0.0622020000000000    0.3673500000000000    0.6451230000000000 O
   0.7511820000000000    0.8802230000000000    0.8371140000000000 O
   0.2489900000000000    0.1196450000000000    0.1628050000000000 O
   0.1230810000000000    0.3746690000000000    0.0480220000000000 O
   0.8769090000000000    0.6252160000000000    0.9519790000000000 O
   0.1854920000000000    0.8712890000000000    0.6044050000000000 O
   0.8144460000000000    0.1286860000000000    0.3955970000000000 O
   0.3040210000000000    0.1235320000000000    0.8971100000000000 O
   0.6961560000000000    0.8765740000000000    0.1028710000000000 O
   0.7392810000000000    0.1207080000000000    0.6563720000000000 O
   0.2606290000000000    0.8792400000000000    0.3436150000000000 O
