O8
1.0
   3.5266279500000000    4.4648620899999996    0.0478634600000000
  -3.5266279500000000    4.4648620899999996    0.0478634600000000
   0.0000000000000000    2.0011476500000001    3.7563757899999999
O
8
direct
   0.6933618400000000    0.2321381300000000    0.1636071400000000 O
   0.7678618699999999    0.3066381600000000    0.8363928600000000 O
   0.3066381600000000    0.7678618699999999    0.8363928600000000 O
   0.2321381300000000    0.6933618400000000    0.1636071400000000 O
   0.7298621300000000    0.7298621300000000    0.1589184700000000 O
   0.2701378700000000    0.2701378700000000    0.8410815300000000 O
   0.8047580200000000    0.8047580200000000    0.8316977100000000 O
   0.1952419800000000    0.1952419800000000    0.1683022900000000 O
