O6
1.0
   4.3054633000000004   -3.0389403300000000   -0.4302131300000000
   4.3054633000000004    3.0389403300000000   -0.4302131300000000
   2.6600724400000000   -0.0000000000000000    4.5696032100000004
O
6
direct
   0.0787242100000000    0.2285890700000000    0.9525557200000000 O
   0.2285890700000000    0.9525557200000000    0.0787242100000000 O
   0.9525557200000000    0.0787242100000000    0.2285890700000000 O
   0.5787242100000000    0.4525557200000000    0.7285890699999999 O
   0.7285890699999999    0.5787242100000000    0.4525557200000000 O
   0.4525557200000000    0.7285890699999999    0.5787242100000000 O
