H8 O4
1.0
   2.1606057000000001   -3.5649008800000002    0.0000000000000000
   2.1606057000000001    3.5649008800000002    0.0000000000000000
   0.0000000000000000    0.0000000000000000    6.5792498600000000
H O
8 4
direct
   0.8419356900000000    0.1580643100000000    0.2500000000000000 H
   0.1580643100000000    0.8419356900000000    0.7500000000000000 H
   0.0079686700000000    0.0079686700000000    0.5000000000000000 H
   0.9920313300000000    0.9920313300000000    0.0000000000000000 H
   0.4156298500000000    0.9636684800000000    0.5181580300000000 H
   0.0363315200000000    0.5843701500000000    0.9818419700000000 H
   0.5843701500000000    0.0363315200000000    0.0181580300000000 H
   0.9636684800000000    0.4156298500000000    0.4818419700000000 H
   0.8458803000000000    0.1609632400000000    0.4333181800000000 O
   0.8390367600000000    0.1541197000000000    0.0666818200000000 O
   0.1541197000000000    0.8390367600000000    0.9333181800000000 O
   0.1609632400000000    0.8458803000000000    0.5666818200000000 O
