O8
1.0
   4.6997997099999997    3.6651207399999999    0.2406869400000000
  -4.6997997099999997    3.6651207399999999    0.2406869400000000
   0.0000000000000000    2.2382068700000000    4.3018895300000004
O
8
direct
   0.7192699100000000   -0.0037918100000000    0.6052813100000000 O
   0.0037918100000000    0.2807300900000000    0.8947186900000000 O
   0.2807300900000000    0.0037918100000000    0.3947186900000000 O
  -0.0037918100000000    0.7192699100000000    0.1052813100000000 O
   0.5837784900000000    0.8117831100000000    0.8664695900000000 O
   0.1882168900000000    0.4162215100000000    0.6335304100000000 O
   0.4162215100000000    0.1882168900000000    0.1335304100000000 O
   0.8117831100000000    0.5837784900000000    0.3664695900000000 O
