H24 O12
1.0
   6.8805750400000001    0.0130705700000000   -2.9281108100000002
  -4.4323569200000001    5.2626799799999997   -2.9282627699999999
   0.0060003200000000    0.0131480800000000    7.4777073700000001
H O
24 12
direct
   0.8043602800000000    0.6346122100000000    0.2571071500000000 H
   0.6346122100000000    0.2571071500000000    0.8043602800000000 H
   0.2571071500000000    0.8043602800000000    0.6346122100000000 H
   0.1956397200000000    0.3653877900000000    0.7428928500000000 H
   0.3653877900000000    0.7428928500000000    0.1956397200000000 H
   0.7428928500000000    0.1956397200000000    0.3653877900000000 H
   0.5872224800000000    0.5965794400000000    0.2702563300000000 H
   0.5965794400000000    0.2702563300000000    0.5872224800000000 H
   0.2702563300000000    0.5872224800000000    0.5965794400000000 H
   0.4127775200000000    0.4034205600000000    0.7297436700000000 H
   0.4034205600000000    0.7297436700000000    0.4127775200000000 H
   0.7297436700000000    0.4127775200000000    0.4034205600000000 H
   0.1411123700000000    0.0439220100000000    0.7916255200000000 H
   0.7916255200000000    0.1411123700000000    0.0439220100000000 H
   0.0439220100000000    0.7916255200000000    0.1411123700000000 H
   0.8588876300000000    0.9560779900000000    0.2083744800000000 H
   0.2083744800000000    0.8588876300000000    0.9560779900000000 H
   0.9560779900000000    0.2083744800000000    0.8588876300000000 H
   0.4315653400000000    0.2046412500000000    0.9920920100000000 H
   0.9920920100000000    0.4315653400000000    0.2046412500000000 H
   0.2046412500000000    0.9920920100000000    0.4315653400000000 H
   0.5684346600000000    0.7953587500000000    0.0079079900000000 H
   0.0079079900000000    0.5684346600000000    0.7953587500000000 H
   0.7953587500000000    0.0079079900000000    0.5684346600000000 H
   0.2501915600000000    0.6704270800000000    0.5236625300000000 O
   0.6704270800000000    0.5236625300000000    0.2501915600000000 O
   0.5236625300000000    0.2501915600000000    0.6704270800000000 O
   0.7498084400000000    0.3295729200000000    0.4763374700000000 O
   0.3295729200000000    0.4763374700000000    0.7498084400000000 O
   0.4763374700000000    0.7498084400000000    0.3295729200000000 O
   0.9727725400000000    0.1433844300000000    0.7277984199999999 O
   0.1433844300000000    0.7277984199999999    0.9727725400000000 O
   0.7277984199999999    0.9727725400000000    0.1433844300000000 O
   0.0272274600000000    0.8566155700000000    0.2722015800000000 O
   0.8566155700000000    0.2722015800000000    0.0272274600000000 O
   0.2722015800000000    0.0272274600000000    0.8566155700000000 O
