O8
1.0
   3.9596606900000002    5.0556450100000001   -0.0433902800000000
  -3.9596606900000002    5.0556450100000001   -0.0433902800000000
   0.0000000000000000    2.1697541800000000    3.6374262599999998
O
8
direct
   0.6812160800000000    0.2510249100000000    0.1672486800000000 O
   0.7489750900000000    0.3187839200000000    0.8327513200000000 O
   0.3187839200000000    0.7489750900000000    0.8327513200000000 O
   0.2510249100000000    0.6812160800000000    0.1672486800000000 O
   0.7438322100000000    0.7438322100000000    0.1589745300000000 O
   0.2561677900000000    0.2561677900000000    0.8410254700000001 O
   0.8111472000000000    0.8111472000000000    0.8245250600000000 O
   0.1888528000000000    0.1888528000000000    0.1754749400000000 O
