Ca2 Mg2 C4 O12
1.0
  -1.0160180323022319   -2.3868216407667417    4.0073010728968956
   5.4368379352887262   -2.4037356216917964   -0.0532427152108975
   4.4807382973649297    4.9541447639119127    4.0868344240658505
Ca Mg C O
2 2 4 12
direct
  -0.0000000000000000   -0.0000000000000000    0.5000000000000000 Ca
   0.5000000000000000    0.5000000000000000    0.5000000000000000 Ca
   0.5000000000000000    0.5000000000000000    0.0000000000000000 Mg
  -0.0000000000000000   -0.0000000000000000    0.0000000000000000 Mg
   0.0089635449036660    0.4918108581047962    0.7697061667537956 C
   0.5089635449141541    0.0081891419003236    0.2302938332451536 C
   0.9910364550963335    0.5081891418952037    0.2302938332462046 C
   0.4910364550858461    0.9918108580996765    0.7697061667548469 C
   0.8845171382309355    0.6171174291093171    0.6310128248191328 O
   0.3659648249966938    0.1426489942670983    0.1044667415389677 O
   0.3845171382284432    0.8828825709028990    0.3689871751869908 O
   0.8659648250082104    0.3573510057268151    0.8955332584488974 O
   0.2212951461874987    0.0025243836165381    0.7765242256441585 O
   0.7212951462053845    0.4974756163707972    0.2234757743543649 O
   0.1154828617690645    0.3828825708906828    0.3689871751808670 O
   0.6340351750033061    0.8573510057329020    0.8955332584610323 O
   0.6154828617715568    0.1171174290971012    0.6310128248130094 O
   0.1340351749917898    0.6426489942731850    0.1044667415511028 O
   0.7787048538125014    0.9974756163834618    0.2234757743558420 O
   0.2787048537946157    0.5025243836292027    0.7765242256456351 O
