Na12 Ca6 Mg6 S18 O72
1.0
   8.9052582735807917    0.0221719544458105   -0.0221997322667884
  -4.4338263391933239    7.6250977058997869    0.0167666914859515
  -0.0531445656661748    0.0150627113554357   22.0041462838330375
Na Ca Mg S O
12 6 6 18 72
direct
   0.3592291979444866    0.3585815674682706    0.2523558689417911 Na
   0.6570446459428680    0.6440044152156545    0.7397148846326971 Na
   0.0056513745037918    0.6861557028345615    0.5876821117240993 Na
   0.3143947793618409    0.9875068621809788    0.0944851014919195 Na
   0.6688255614907774    0.0068785714763635    0.9159449124019687 Na
   0.9960981875264423    0.3158048500265096    0.4088287082830746 Na
   0.9973859322041605    0.0106340342447879    0.5000558997097855 Na
   0.9992926240915097    0.9938846371323322    0.0000177105436165 Na
   0.6617269898641140    0.3245784447901912    0.8330349747809009 Na
   0.6743648939233182    0.3306376210823458    0.3300818120897233 Na
   0.3245243832059757    0.6768508536959317    0.1768035176377367 Na
   0.3323771083507552    0.6628686403908972    0.6631347560966390 Na
   0.9941108630698068    0.0064776738853354    0.8387728543809487 Ca
   0.6641506097740688    0.3319127926857703    0.9931871078255270 Ca
   0.6699870542655830    0.3194382344651885    0.4871397286181178 Ca
   0.3243502802921938    0.6595254916373818    0.0200741124017227 Ca
   0.3334816760610906    0.6815727199273383    0.5100054981280664 Ca
   0.3277079210505889    0.6507567401705074    0.8165087977843655 Ca
   0.0025663200386035    0.9943096203474298    0.3482975751017463 Mg
   0.0024893910409318    0.0049479681892137    0.6537123329839787 Mg
   0.9943658177012509    0.0003897531102481    0.1549801465075262 Mg
   0.6622324029930908    0.3262199057201087    0.6729374860643631 Mg
   0.6750330073396356    0.3441359955011833    0.1842053474050260 Mg
   0.3462097527860308    0.6737396630811006    0.3210219446070610 Mg
   0.3004754066280171    0.0012735306003790    0.2503884647968846 S
   0.7011741012185055    0.7018748199403788    0.2518675621074777 S
   0.0028626724594289    0.2989179032196674    0.2539923843170087 S
   0.3246579680471768    0.2955516554689979    0.7467522189120999 S
   0.0026703987275383    0.6830698415718857    0.7395152672562162 S
   0.7044627817322606    0.0079455607165926    0.7482910576031330 S
   0.9605934301657086    0.3241144779402774    0.5772759662036009 S
   0.3405452385847525    0.0329901497627318    0.5802065574237858 S
   0.6626830376587804    0.6460958283404921    0.5868224906017829 S
   0.9684891060568503    0.6532812317031897    0.0906277518883698 S
   0.6726866268567804    0.0429713498684023    0.0831309657496675 S
   0.3557773993883373    0.3437198295096522    0.0972423472201740 S
   0.6345020433069948    0.6585320640685168    0.9047217173217277 S
   0.0090000058066906    0.3449381588804457    0.9162869066467465 S
   0.3163173696825297    0.9652398557734401    0.9277061928726482 S
   0.6592513867072043    0.9704057546625720    0.4144373266714396 S
   0.3431283401045491    0.3585129062373298    0.4089811200486295 S
   0.0417865957961681    0.6705853421271044    0.4213247577998729 S
   0.2127281526948011    0.0505207318256566    0.2960613466718627 O
   0.8006393475861131    0.7909931279236702    0.3059569134491653 O
   0.9748730510227546    0.2052162409187019    0.3122680623481173 O
   0.2568570552474796    0.2293855509627178    0.8074115217609261 O
   0.9941063192217712    0.7700569757295881    0.7947904342200616 O
   0.7372059253961467    0.0557419887508814    0.8132906239512678 O
   0.8413108666214768    0.9661530941113980    0.7292011705324342 O
   0.2090183324926898    0.1799695748466092    0.6999216670797850 O
   0.0106040134023786    0.7860267982830109    0.6852902442383240 O
   0.7888202254941490    0.8002824018870456    0.1974212554441266 O
   0.0528366206447402    0.2116847248589906    0.2080510493547578 O
   0.2078251717879738    0.9711863949342643    0.1918904290294776 O
   0.8211590378829143    0.3603437836967203    0.5972178961913954 O
   0.4569853752983519    0.1522331455478749    0.6259966944695989 O
   0.6552010876221459    0.5455896427187881    0.6417972035936828 O
   0.8634499417509645    0.5494835675631080    0.1415498389531606 O
   0.6407881516787413    0.1789903995517008    0.1106195643987320 O
   0.4535409305648557    0.3455817852405332    0.1519100931511659 O
   0.4564082598471799    0.3646312652365324    0.0422377070310631 O
   0.8951540040868480    0.5699054044276650    0.0324916682908878 O
   0.6900834063136756    0.0766170099969727    0.0170816389399704 O
   0.4080821828330841    0.0938198187979182    0.5189795908198889 O
   0.6782127009823924    0.5595870402230361    0.5325582069419355 O
   0.9292065779797980    0.2808378626865675    0.5118142963202601 O
   0.5014233349859225    0.6677287483684751    0.9416448747361414 O
   0.1053591935955183    0.4446591839263263    0.9694151985951009 O
   0.3106487267203590    0.9124818786436961    0.9923122366834463 O
   0.5849162109106913    0.9059035306200300    0.4744984348158852 O
   0.3427149578913316    0.4585748305034585    0.4617480597329120 O
   0.0710248478248943    0.6857940556526998    0.4877568799844170 O
   0.1835319564206941    0.6483310327043768    0.3947615256567190 O
   0.5485993961200251    0.8570881034584446    0.3661972914690423 O
   0.3472266270761963    0.4518119780898147    0.3522524674124625 O
   0.0988507092734636    0.4231123366399032    0.8594525642861868 O
   0.3198961430064529    0.8324795258069884    0.8885182098996509 O
   0.5908946743064973    0.6608056787596226    0.8396161316709438 O
   0.0440591714312148    0.8255577771330707    0.3985966969125698 O
   0.8322241033960296    0.9843395220243494    0.4131508186611015 O
   0.1781090264654992    0.1885780149925651    0.4103252695109276 O
   0.9807212175368960    0.1651462428832104    0.9215403244187783 O
   0.1662731703892462    0.9850420179446573    0.9157869476428857 O
   0.8017485784386622    0.8179428423974144    0.9170740897642062 O
   0.9540634726646999    0.1794717394105874    0.6108573543852458 O
   0.1666742177366558    0.0176773417446512    0.5839797758673271 O
   0.8206788749447398    0.8216720932425190    0.5905658629887327 O
   0.9832717684769534    0.8288712310857491    0.0899014320293148 O
   0.8293589435111670    0.0520653901437313    0.1063619759604677 O
   0.1933343037339128    0.1720950057442892    0.0933214726041101 O
   0.7148305311594498    0.1509572596339908    0.7126068611816123 O
   0.4990879259647016    0.3121602590651520    0.7427138527027637 O
   0.8427575152200362    0.5095816738586976    0.7362241340912306 O
   0.6766033794930379    0.5213334163863266    0.2506283720127129 O
   0.8444207998062581    0.3015149626399989    0.2377415713124762 O
   0.4801392443891856    0.1508533048868514    0.2449123178613775 O
   0.6420812540803524    0.5003675361666993    0.9165038526289067 O
   0.8363990688546252    0.3303759016307168    0.9141588801036846 O
   0.4802565954707987    0.1312533383992900    0.9177178372326580 O
   0.6865884853558128    0.1492901106980327    0.4057323718632944 O
   0.4927153187276616    0.3322002532630108    0.4092849762367052 O
   0.8760906147300673    0.5092243664535232    0.4083212662261460 O
   0.3162972227209977    0.4857085396928866    0.1018667011842140 O
   0.1464229776386361    0.6813094073195103    0.0973957351320820 O
   0.5172648069008829    0.8708654250039842    0.0952471618107538 O
   0.3154108044564623    0.8552763462642901    0.5900940256452003 O
   0.5079976290679582    0.6635243491369209    0.5852520564677874 O
   0.1278711080843919    0.4863583082843448    0.5861125426052283 O
   0.3046675231069287    0.8423983366915593    0.2670483599518221 O
   0.5230681427405486    0.6786448438356274    0.2535969517489747 O
   0.1505854161268658    0.4804231058862811    0.2600149999512524 O
   0.3489362359773267    0.4735704877979217    0.7385169898156860 O
   0.1552934102832566    0.6615675438625317    0.7398477211197019 O
   0.5348489705814288    0.8473394608496108    0.7404611726594297 O
