H24 O12
1.0
   3.9133257499999998   -0.0001922800000000   -0.0026721600000000
  -0.0018010900000000    7.8882664599999996   -0.0004111100000000
   0.0043187800000000   -0.0002777900000000    8.1072015600000000
H O
24 12
direct
   0.2676867500000000    0.0726764300000000    0.8484398800000000 H
   0.6421879700000001    0.5457603600000001    0.4041750000000000 H
   0.5055473600000000    0.6601586100000000    0.9160547100000000 H
   0.1937001900000000    0.2185109200000000    0.7251388300000000 H
   0.4606162000000000    0.2217145800000000    0.2142443300000000 H
   0.8986858100000000    0.0900833500000000    0.4662532500000000 H
   0.7894698700000000    0.7217779900000000    0.7860819000000000 H
   0.1080386400000000    0.4542658400000000    0.9040697400000000 H
   0.3509058100000000    0.5903118600000000    0.5339347800000001 H
   0.7445420800000000    0.1602428600000000    0.0842019500000000 H
   0.0053081100000000    0.8399129100000000    0.5841329700000000 H
   0.6070899700000000    0.0453703400000000    0.5957893100000000 H
   0.0561010500000000    0.7187943500000000    0.2745002300000000 H
   0.7679132500000000    0.4271820700000000    0.6513779800000000 H
   0.3992784600000000    0.4098268500000000    0.0339090100000000 H
   0.5560227500000000    0.7813295099999999    0.2252130300000000 H
   0.2445949500000000    0.3398961000000000    0.4161814000000000 H
   0.8509208300000000    0.9100366000000000    0.9662286300000000 H
   0.4821090400000000    0.9272347399999999    0.3484694300000000 H
   0.6938645800000000    0.2810766800000000    0.7743855600000000 H
   0.9606443500000000    0.2783121500000000    0.2861757800000000 H
   0.1424504400000000    0.9546594100000000    0.0958614900000000 H
   0.2893971400000000    0.7784833200000000    0.7141568400000000 H
   0.9819360300000000    0.5726747800000000    0.1515051300000000 H
   0.7496786300000000    0.9976921900000000    0.5067049000000000 O
   0.2502669900000000    0.5020958300000000    0.9932334400000000 O
  -0.0000269800000000    0.0024078500000000    0.0067657800000000 O
   0.8795811800000000    0.6343697100000000    0.2454091000000000 O
   0.1389924300000000    0.2393709900000000    0.3634465400000000 O
   0.8703885200000000    0.3654603100000000    0.7452604400000000 O
   0.6390110300000000    0.2606940900000000    0.1370264400000000 O
   0.4998752100000000    0.4980043700000000    0.4933201000000000 O
   0.1109866500000000    0.7394827400000000    0.6369159800000000 O
   0.3700957800000000    0.1341373900000000    0.7543771600000000 O
   0.6110969300000000    0.7606820399999999    0.8633381500000000 O
   0.3796480000000000    0.8657079000000000    0.2544257900000000 O
