C4 O8
1.0
   5.6788908400000002   -0.0000000000000000    0.0000000000000000
   0.0000000000000000    4.7845453300000003    0.0000000000000000
   0.0000000000000000    0.0000000000000000    6.3155396399999999
C O
4 8
direct
   0.2500000000000000    0.5000000000000000    0.8529985200000000 C
   0.2500000000000000    0.0000000000000000    0.3529985200000000 C
   0.7500000000000000    0.0000000000000000    0.6470014800000000 C
   0.7500000000000000    0.5000000000000000    0.1470014800000000 C
   0.8664169800000000    0.2990288800000000    0.1463284600000000 O
   0.6335830200000000    0.7009711199999999    0.1463284600000000 O
   0.8664169800000000    0.2009711200000000    0.6463284600000000 O
   0.1335830200000000    0.7990288800000001    0.3536715400000000 O
   0.6335830200000000    0.7990288800000001    0.6463284600000000 O
   0.3664169800000000    0.2009711200000000    0.3536715400000000 O
   0.3664169800000000    0.2990288800000000    0.8536715400000000 O
   0.1335830200000000    0.7009711199999999    0.8536715400000000 O
