H24 O12
1.0
   3.9111344400000001   -0.0024711600000000    0.0019643000000000
   0.0089019300000000    7.9656292600000000    0.1244886800000000
  -0.0015609700000000   -0.0075922000000000    8.0504614199999995
H O
24 12
direct
   0.3941862100000000    0.9508970300000000    0.5912626800000000 H
   0.3064372400000000    0.7187027499999999    0.7740938800000000 H
   0.9496182600000000    0.2817049300000000    0.2750486600000000 H
   0.0371795700000000    0.7207606400000000    0.2831510000000000 H
   0.0144193200000000    0.4302711900000000    0.1524402200000000 H
   0.9871403100000000    0.1532974400000000    0.5767319500000000 H
   0.8940168200000000    0.5499584400000000    0.9054349800000000 H
   0.2380196800000000    0.5742421900000000    0.6512160500000000 H
   0.4866769200000000    0.3482527200000000    0.9195141100000001 H
   0.7377524500000000    0.9270020300000000    0.8451179500000000 H
   0.1441786600000000    0.0964424200000000    0.9579560300000000 H
   0.3563906400000000    0.4514688700000000    0.4057046700000000 H
   0.8064519800000000    0.7821116200000000    0.7226702400000000 H
   0.5370463100000000    0.7812593400000000    0.2126390400000000 H
   0.6445968200000000    0.4054506700000000    0.5378030200000000 H
   0.7563488900000001    0.6557527800000000    0.4148873500000000 H
   0.4496665200000000    0.2195261200000000    0.2219770700000000 H
   0.5579151800000000    0.2239022100000000    0.7779309800000000 H
   0.8565665400000000    0.0503189600000000    0.0904004500000000 H
   0.1017380900000000    0.9042292500000000    0.4627667000000000 H
   0.5150183600000000    0.0708441700000000    0.3443832600000000 H
   0.2562822100000000    0.8461118900000000    0.0808457100000000 H
   0.6013848200000000    0.5970518400000000    0.0337513400000000 H
   0.0579487800000000    0.2780480200000000    0.7179197500000000 H
   0.6242789500000000    0.1351495800000000    0.2525819500000000 O
   0.3819059400000000    0.2528147000000000    0.8609612600000000 O
   0.8821618200000000    0.2489919000000000    0.6349148300000000 O
   0.1239467100000000    0.3661060000000000    0.2442642400000000 O
   0.3586179300000000    0.7452699699999999    0.1342130400000000 O
   0.6293587800000000    0.8643083100000000    0.7539148700000000 O
   0.9989397000000000    0.0039839300000000    0.0006239900000000 O
   0.1295752000000000    0.6365547600000000    0.7427386600000000 O
   0.4990301300000000    0.4978946000000000    0.4952752800000000 O
   0.2497031200000000    0.9966213500000000    0.5007593100000000 O
   0.7493526200000000    0.5044680200000000    0.9959809900000000 O
   0.8585525000000001    0.7566313800000000    0.3616285100000000 O
