H24 O12
1.0
   3.9129899300000002   -0.0013428200000000    0.0007085800000000
   0.0042947300000000    7.9799769300000003    0.0014310100000000
   0.0000696400000000   -0.0012421300000000    8.0395211399999997
H O
24 12
direct
   0.4875315000000000    0.9229588800000000    0.6481013200000000 H
   0.8561458400000000    0.0905360000000000    0.9473222800000000 H
   0.0107391800000000    0.1547523600000000    0.5712098200000000 H
   0.6883871100000000    0.2814296800000000    0.2251538600000000 H
   0.0615396700000000    0.7187889800000000    0.7251097399999999 H
   0.2393101200000000    0.6547341100000000    0.4288709900000000 H
   0.3944038900000000    0.5906178500000000    0.0527615100000000 H
   0.7622303000000000    0.4229707400000000    0.3518977500000000 H
   0.1882859100000000    0.2189979200000000    0.2747709000000000 H
   0.1442849300000000    0.9585362200000000    0.8990391000000000 H
   0.4523886500000000    0.2226428600000000    0.7817095500000000 H
   0.6055058000000000    0.0416051600000000    0.3988964400000000 H
   0.7979734500000000    0.7226884400000000    0.2184134700000000 H
   0.2979023100000000    0.7770123400000000    0.2816033100000000 H
   0.8935602200000000    0.9094694500000000    0.4470132300000000 H
   0.1061446800000000    0.4587067500000000    0.1010243000000000 H
   0.6442333600000000    0.5413030599999999    0.6011751200000000 H
   0.3561767100000000    0.4092355200000000    0.5530099300000000 H
   0.2622736400000000    0.0771881400000000    0.1482807200000000 H
   0.9879172500000000    0.5771368800000000    0.8517837700000001 H
   0.9523278600000000    0.2769686300000000    0.7185270300000000 H
   0.7395690100000000    0.8450856400000000    0.0712361500000000 H
   0.5615343800000000    0.7812567300000000    0.7747088700000000 H
   0.5107868600000000    0.3451298900000000    0.9288153099999999 H
  -0.0000619600000000    0.9989078800000000    0.9914864300000000 O
   0.4998202200000000    0.5008954000000000    0.5088124000000001 O
   0.7499185200000000    0.0011147600000000    0.4912514800000000 O
   0.6241771500000000    0.7558090800000000    0.1358983900000000 O
   0.3652578800000000    0.1361425900000000    0.2441795600000000 O
   0.1240037300000000    0.7439726600000000    0.3641183300000000 O
   0.8652469699999999    0.3642537600000000    0.2558250300000000 O
   0.6261808000000000    0.2558009400000000    0.8641943300000000 O
   0.3845982700000000    0.8641036200000000    0.7440955600000000 O
   0.2505741300000000    0.4990229700000000    0.0086014700000000 O
   0.1261863200000000    0.2438951700000000    0.6359888900000000 O
   0.8847503600000000    0.6359249400000000    0.7558146900000000 O
