H24 O12
1.0
   7.5042207699999999   -0.0000000100000000    0.0000000000000000
  -3.7521108999999999    6.4988451600000001   -0.0000000000000000
  -0.0000000000000000   -0.0000000000000000    7.0626434800000002
H O
24 12
direct
   0.3360172200000000    0.3360172200000000    0.6960308700000000 H
   0.6639827800000000   -0.0000000000000000    0.6960308700000000 H
  -0.0000000000000000    0.6639827800000000    0.6960308700000000 H
   0.6639827800000000    0.6639827800000000    0.1960308700000000 H
   0.3360172200000000    0.0000000000000000    0.1960308700000000 H
   0.0000000000000000    0.3360172200000000    0.1960308700000000 H
   0.4604013800000000    0.4604013800000000    0.5113929500000000 H
   0.5395986200000000    0.0000000000000000    0.5113929500000000 H
   0.0000000000000000    0.5395986200000000    0.5113929500000000 H
   0.5395986200000000    0.5395986200000000    0.0113929500000000 H
   0.4604013800000000   -0.0000000000000000    0.0113929500000000 H
  -0.0000000000000000    0.4604013800000000    0.0113929500000000 H
   0.7929783000000000    0.6692429200000000    0.4785063600000000 H
   0.3307570800000000    0.1237363800000000    0.4785063600000000 H
   0.8762636200000000    0.2070207000000000    0.4785063600000000 H
   0.6692429200000000    0.7929783000000000    0.4785063600000000 H
   0.1237363800000000    0.3307570800000000    0.4785063600000000 H
   0.2070207000000000    0.8762636200000000    0.4785063600000000 H
   0.2070207000000000    0.3307570800000000    0.9785063600000000 H
   0.6692429200000000    0.8762636200000000    0.9785063600000000 H
   0.1237363800000000    0.7929783000000000    0.9785063600000000 H
   0.3307570800000000    0.2070207000000000    0.9785063600000000 H
   0.8762636200000000    0.6692429200000000    0.9785063600000000 H
   0.7929783000000000    0.1237363800000000    0.9785063600000000 H
   0.3342312600000000    0.3342312600000000    0.5551569100000000 O
   0.6657687400000000   -0.0000000000000000    0.5551569100000000 O
  -0.0000000000000000    0.6657687400000000    0.5551569100000000 O
   0.6657687400000000    0.6657687400000000    0.0551569100000000 O
   0.3342312600000000    0.0000000000000000    0.0551569100000000 O
   0.0000000000000000    0.3342312600000000    0.0551569100000000 O
   0.6674142300000000    0.6674142300000000    0.4304065600000000 O
   0.3325857700000000   -0.0000000000000000    0.4304065600000000 O
  -0.0000000000000000    0.3325857700000000    0.4304065600000000 O
   0.3325857700000000    0.3325857700000000    0.9304065600000000 O
   0.6674142300000000    0.0000000000000000    0.9304065600000000 O
   0.0000000000000000    0.6674142300000000    0.9304065600000000 O
