Li4 Fe4 P4 O16
1.0
   0.0000230000000000    5.7006030000000001    0.0000030000000000
   5.8588639999999996    0.0000230000000000   -0.0000220000000000
   0.0000310000000000   -0.0000040000000000   -8.0679330000000000
Li Fe P O
4 4 4 16
direct
   0.0000080000000000    0.9999530000000000    0.9999890000000000 Li
   0.5000150000000000    0.5000050000000000    0.4999830000000000 Li
   0.5000040000000000    0.9999510000000000    0.9999900000000000 Li
   0.9999930000000000    0.5000019999999999    0.4999900000000000 Li
   0.7500160000000000    0.7500580000000000    0.7498660000000000 Fe
   0.2498580000000000    0.7501610000000000    0.2501080000000000 Fe
   0.2500530000000000    0.2500400000000000    0.2501500000000000 Fe
   0.7500010000000000    0.2500840000000000    0.7500280000000000 Fe
   0.7500050000000000    0.4999730000000000    0.1210360000000000 P
   0.2499990000000000    0.9999970000000000    0.6210390000000000 P
   0.7500000000000000    0.0000020000000000    0.3789640000000000 P
   0.2500030000000000    0.4999640000000000    0.8789670000000001 P
   0.7500030000000000    0.7794870000000000    0.4867580000000000 O
   0.2500080000000000    0.2794790000000000    0.9867880000000000 O
   0.7500060000000000    0.2794890000000000    0.0132200000000000 O
   0.2500030000000000    0.7795010000000000    0.5132300000000000 O
   0.7500030000000000    0.2204900000000000    0.4868010000000000 O
   0.2500060000000000    0.7204780000000000    0.9867610000000000 O
   0.7500070000000000    0.7204680000000000    0.0132210000000000 O
   0.2500040000000000    0.2204820000000000    0.5131960000000000 O
   0.9730040000000000    0.4999750000000000    0.2372590000000000 O
   0.4729980000000000    0.0000030000000000    0.7372580000000000 O
   0.5270000000000000    0.4999840000000000    0.2372610000000000 O
   0.0270030000000000    0.0000090000000000    0.7372580000000000 O
   0.5270190000000000    0.0000050000000000    0.2627210000000000 O
   0.0270210000000000    0.4999760000000000    0.7627190000000000 O
   0.9729750000000000    0.0000100000000000    0.2627220000000000 O
   0.4729870000000000    0.4999750000000000    0.7627190000000000 O
