Li12 Fe12 P12 O48
1.0
   5.3257969999999997   -9.2245519999999992    0.0000000000000000
   5.3257969999999997    9.2245519999999992    0.0000000000000000
   0.0000000000000000    0.0000000000000000   12.7045849999999998
Li Fe P O
12 12 12 48
direct
   0.0000000000000000    0.5000000000000000    0.0074910000000000 Li
   0.0000000000000000    0.5000000000000000    0.6591760000000000 Li
   0.0000000000000000    0.5000000000000000    0.3333330000000000 Li
   0.0000000000000000    0.0000000000000000    0.1666670000000000 Li
   0.0000000000000000    0.0000000000000000    0.5000000000000000 Li
   0.0000000000000000    0.0000000000000000    0.8333330000000000 Li
   0.5000000000000000    0.5000000000000000    0.3408240000000000 Li
   0.5000000000000000    0.5000000000000000    0.6666670000000000 Li
   0.5000000000000000    0.5000000000000000    0.9925090000000000 Li
   0.5000000000000000    0.0000000000000000    0.3258420000000000 Li
   0.5000000000000000    0.0000000000000000    0.0000000000000000 Li
   0.5000000000000000    0.0000000000000000    0.6741580000000000 Li
   0.0000000000000000    0.7473880000000001    0.8333330000000000 Fe
   0.0000000000000000    0.2526120000000000    0.8333330000000000 Fe
   0.2478120000000000    0.7521880000000000    0.1666670000000000 Fe
   0.2478120000000000    0.4956240000000000    0.5000000000000000 Fe
   0.5043760000000000    0.7521880000000000    0.8333330000000000 Fe
   0.2526120000000000    0.2526120000000000    0.1666670000000000 Fe
   0.2526120000000000    0.0000000000000000    0.5000000000000000 Fe
   0.7473880000000001    0.7473880000000001    0.1666670000000000 Fe
   0.4956240000000000    0.2478120000000000    0.8333330000000000 Fe
   0.7521880000000000    0.5043760000000000    0.5000000000000000 Fe
   0.7521880000000000    0.2478120000000000    0.1666670000000000 Fe
   0.7473880000000001    0.0000000000000000    0.5000000000000000 Fe
   0.0000000000000000    0.7568230000000000    0.3333330000000000 P
   0.2478540000000000    0.7521460000000000    0.6666670000000000 P
   0.0000000000000000    0.2431770000000000    0.3333330000000000 P
   0.2478540000000000    0.4957070000000000    0.0000000000000000 P
   0.2431770000000000    0.2431770000000000    0.6666670000000000 P
   0.5042930000000000    0.7521460000000000    0.3333330000000000 P
   0.2431770000000000    0.0000000000000000    0.0000000000000000 P
   0.4957070000000000    0.2478540000000000    0.3333330000000000 P
   0.7568230000000000    0.7568230000000000    0.6666670000000000 P
   0.7521460000000000    0.5042930000000000    0.0000000000000000 P
   0.7521460000000000    0.2478540000000000    0.6666670000000000 P
   0.7568230000000000    0.0000000000000000    0.0000000000000000 P
   0.0656000000000000    0.8761470000000000    0.4195150000000000 O
   0.1238530000000000    0.9344000000000000    0.9138180000000000 O
   0.1044300000000000    0.6998100000000000    0.7285450000000000 O
   0.1113730000000000    0.7191470000000000    0.2840490000000000 O
   0.2808530000000000    0.8886269999999999    0.0492840000000000 O
   0.3001900000000000    0.8955700000000000    0.6047890000000000 O
   0.2045210000000000    0.6208860000000000    0.5928909999999999 O
   0.1044300000000000    0.4046210000000000    0.9381220000000000 O
   0.2045210000000000    0.5836350000000000    0.0737760000000000 O
   0.1113730000000000    0.3922260000000000    0.3826170000000000 O
   0.0656000000000000    0.1894530000000000    0.2471520000000000 O
   0.3791140000000000    0.7954790000000000    0.7404420000000000 O
   0.4163650000000000    0.7954790000000000    0.2595580000000000 O
   0.1238530000000000    0.1894530000000000    0.7528480000000000 O
   0.2808530000000000    0.3922260000000000    0.6173830000000000 O
   0.3791140000000000    0.5836350000000000    0.9262240000000000 O
   0.3001900000000000    0.4046210000000000    0.0618780000000000 O
   0.4163650000000000    0.6208860000000000    0.4071090000000000 O
   0.1894530000000000    0.1238530000000000    0.5804850000000000 O
   0.1894530000000000    0.0656000000000000    0.0861820000000000 O
   0.5953790000000000    0.8955700000000000    0.3952110000000000 O
   0.6077740000000000    0.8886269999999999    0.9507160000000000 O
   0.6077740000000000    0.7191470000000000    0.7159510000000000 O
   0.4046210000000000    0.3001900000000000    0.2714550000000000 O
   0.5953790000000000    0.6998100000000000    0.2714550000000000 O
   0.3922260000000000    0.2808530000000000    0.7159510000000000 O
   0.3922260000000000    0.1113730000000000    0.9507160000000000 O
   0.4046210000000000    0.1044300000000000    0.3952110000000000 O
   0.8105470000000000    0.9344000000000000    0.0861820000000000 O
   0.8105470000000000    0.8761470000000000    0.5804850000000000 O
   0.5836350000000000    0.3791140000000000    0.4071090000000000 O
   0.6998100000000000    0.5953790000000000    0.0618780000000000 O
   0.6208860000000000    0.4163650000000000    0.9262240000000000 O
   0.7191470000000000    0.6077740000000000    0.6173830000000000 O
   0.8761470000000000    0.8105470000000000    0.7528480000000000 O
   0.5836350000000000    0.2045210000000000    0.2595580000000000 O
   0.6208860000000000    0.2045210000000000    0.7404420000000000 O
   0.9344000000000000    0.8105470000000000    0.2471520000000000 O
   0.8886269999999999    0.6077740000000000    0.3826170000000000 O
   0.7954790000000000    0.4163650000000000    0.0737760000000000 O
   0.8955700000000000    0.5953790000000000    0.9381220000000000 O
   0.7954790000000000    0.3791140000000000    0.5928909999999999 O
   0.6998100000000000    0.1044300000000000    0.6047890000000000 O
   0.7191470000000000    0.1113730000000000    0.0492840000000000 O
   0.8886269999999999    0.2808530000000000    0.2840490000000000 O
   0.8955700000000000    0.3001900000000000    0.7285450000000000 O
   0.8761470000000000    0.0656000000000000    0.9138180000000000 O
   0.9344000000000000    0.1238530000000000    0.4195150000000000 O
