Li12 Fe12 P12 O48
1.0
   7.4001840000000003    0.0000000000000000    0.0000000000000000
   0.0000000000000000    8.4856970000000000    0.0000000000000000
   0.0000000000000000    0.2482130000000000   14.8430859999999996
Li Fe P O
12 12 12 48
direct
   0.3313060000000000    0.0667070000000000    0.5924970000000001 Li
   0.1778660000000000    0.0786260000000000    0.2414180000000000 Li
   0.3255280000000000    0.0963620000000000    0.9197480000000000 Li
   0.8255280000000000    0.4036380000000000    0.5802520000000000 Li
   0.6778660000000000    0.4213740000000000    0.2585820000000000 Li
   0.8313060000000000    0.4332930000000000    0.9075029999999999 Li
   0.1686940000000000    0.5667070000000000    0.0924970000000000 Li
   0.3221340000000000    0.5786260000000000    0.7414180000000000 Li
   0.1744720000000000    0.5963619999999999    0.4197480000000000 Li
   0.6744720000000000    0.9036380000000001    0.0802520000000000 Li
   0.8221340000000000    0.9213740000000000    0.7585820000000000 Li
   0.6686940000000000    0.9332930000000000    0.4075030000000000 Li
   0.0385850000000000    0.2369740000000000    0.0763190000000000 Fe
   0.9559800000000001    0.2411750000000000    0.4134260000000000 Fe
   0.0455170000000000    0.2484190000000000    0.7554450000000000 Fe
   0.5455170000000000    0.2515810000000000    0.7445550000000000 Fe
   0.4559800000000000    0.2588250000000000    0.0865740000000000 Fe
   0.5385850000000000    0.2630260000000000    0.4236810000000000 Fe
   0.4614150000000000    0.7369740000000000    0.5763190000000000 Fe
   0.5440199999999999    0.7411750000000000    0.9134260000000000 Fe
   0.4544830000000000    0.7484189999999999    0.2554450000000000 Fe
   0.9544830000000000    0.7515810000000001    0.2445550000000000 Fe
   0.0440200000000000    0.7588250000000000    0.5865740000000000 Fe
   0.9614150000000000    0.7630260000000000    0.9236810000000000 Fe
   0.7412820000000000    0.0524670000000000    0.5890790000000000 P
   0.7612220000000000    0.0817260000000000    0.2292560000000000 P
   0.7355300000000000    0.1094520000000000    0.9244980000000000 P
   0.2355300000000000    0.3905480000000000    0.5755020000000000 P
   0.2612220000000000    0.4182740000000000    0.2707440000000000 P
   0.2412820000000000    0.4475330000000000    0.9109210000000000 P
   0.7587180000000000    0.5524670000000000    0.0890790000000000 P
   0.7387780000000000    0.5817260000000000    0.7292560000000000 P
   0.7644700000000000    0.6094520000000000    0.4244980000000000 P
   0.2644700000000000    0.8905480000000000    0.0755020000000000 P
   0.2387780000000000    0.9182740000000000    0.7707440000000000 P
   0.2587180000000000    0.9475330000000000    0.4109210000000000 P
   0.4356680000000000    0.0431820000000000    0.3975710000000000 O
   0.1009100000000000    0.0424530000000000    0.3694490000000000 O
   0.2336950000000000    0.0654350000000000    0.0436780000000000 O
   0.9448410000000000    0.0788920000000000    0.1789110000000000 O
   0.6107830000000000    0.0968850000000000    0.1577050000000000 O
   0.2623480000000000    0.0832240000000000    0.7211910000000000 O
   0.7683940000000000    0.0931980000000000    0.4867950000000000 O
   0.7245570000000000    0.1105980000000000    0.8186460000000000 O
   0.5564350000000000    0.1726700000000000    0.9618330000000000 O
   0.7571520000000000    0.2133740000000000    0.3008290000000000 O
   0.7246650000000000    0.2114900000000000    0.6396160000000000 O
   0.8922540000000000    0.2166870000000000    0.9539630000000000 O
   0.3922540000000000    0.2833130000000000    0.5460370000000000 O
   0.2246650000000000    0.2885100000000000    0.8603840000000000 O
   0.2571520000000000    0.2866260000000000    0.1991710000000000 O
   0.0564350000000000    0.3273300000000000    0.5381670000000000 O
   0.2245570000000000    0.3894020000000000    0.6813540000000000 O
   0.2683940000000000    0.4068020000000000    0.0132050000000000 O
   0.1107830000000000    0.4031150000000000    0.3422950000000000 O
   0.7623480000000000    0.4167760000000000    0.7788090000000000 O
   0.4448410000000000    0.4211080000000000    0.3210890000000000 O
   0.7336950000000000    0.4345650000000000    0.4563220000000000 O
   0.6009100000000001    0.4575470000000000    0.1305510000000000 O
   0.9356680000000001    0.4568180000000000    0.1024290000000000 O
   0.0643320000000000    0.5431820000000001    0.8975710000000000 O
   0.3990900000000000    0.5424530000000000    0.8694490000000000 O
   0.2663050000000000    0.5654350000000000    0.5436780000000000 O
   0.5551590000000000    0.5788920000000000    0.6789110000000000 O
   0.2376520000000000    0.5832240000000000    0.2211910000000000 O
   0.8892170000000000    0.5968850000000000    0.6577050000000000 O
   0.7316060000000000    0.5931980000000000    0.9867950000000000 O
   0.7754430000000000    0.6105980000000000    0.3186460000000000 O
   0.9435650000000000    0.6726700000000000    0.4618330000000000 O
   0.7428480000000000    0.7133740000000000    0.8008290000000000 O
   0.7753350000000000    0.7114900000000000    0.1396160000000000 O
   0.6077460000000000    0.7166870000000000    0.4539630000000000 O
   0.1077460000000000    0.7833130000000000    0.0460370000000000 O
   0.2753350000000000    0.7885100000000000    0.3603840000000000 O
   0.2428480000000000    0.7866260000000000    0.6991710000000000 O
   0.4435650000000000    0.8273300000000000    0.0381670000000000 O
   0.2754430000000000    0.8894020000000000    0.1813540000000000 O
   0.2316060000000000    0.9068020000000000    0.5132050000000000 O
   0.7376520000000000    0.9167760000000000    0.2788090000000000 O
   0.3892170000000000    0.9031150000000000    0.8422950000000000 O
   0.0551590000000000    0.9211080000000000    0.8210890000000000 O
   0.7663050000000000    0.9345650000000000    0.9563220000000000 O
   0.8990899999999999    0.9575470000000000    0.6305510000000000 O
   0.5643319999999999    0.9568179999999999    0.6024290000000000 O
