Li12 Fe12 P12 O48
1.0
   7.8162479999999999    0.0000000000000000    0.0000000000000000
   0.0000000000000000    8.8953609999999994    0.0000000000000000
   0.0000000000000000    8.6404870000000003   15.3969260000000006
Li Fe P O
12 12 12 48
direct
   0.0053590000000000    0.7841410000000000    0.9291320000000000 Li
   0.9884300000000000    0.1548820000000000    0.5814140000000000 Li
   0.1558640000000000    0.4986520000000000    0.2497190000000000 Li
   0.6558640000000000    0.5013480000000000    0.2502810000000000 Li
   0.4884300000000000    0.8451180000000000    0.9185860000000000 Li
   0.5053590000000000    0.2158590000000000    0.5708680000000000 Li
   0.4946410000000000    0.7841410000000000    0.4291320000000000 Li
   0.5115700000000000    0.1548820000000000    0.0814140000000000 Li
   0.3441360000000000    0.4986520000000000    0.7497190000000000 Li
   0.8441360000000000    0.5013480000000000    0.7502810000000000 Li
   0.0115700000000000    0.8451180000000000    0.4185860000000000 Li
   0.9946410000000000    0.2158590000000000    0.0708680000000000 Li
   0.6687920000000001    0.1365660000000000    0.4066690000000000 Fe
   0.8319299999999999    0.8114640000000000    0.7689750000000000 Fe
   0.6678410000000000    0.5274250000000000    0.0754530000000000 Fe
   0.1678410000000000    0.4725750000000000    0.4245470000000000 Fe
   0.3319300000000000    0.1885360000000000    0.7310250000000000 Fe
   0.1687920000000000    0.8634340000000000    0.0933310000000000 Fe
   0.8312079999999999    0.1365660000000000    0.9066689999999999 Fe
   0.6680700000000001    0.8114640000000000    0.2689750000000000 Fe
   0.8321590000000000    0.5274250000000000    0.5754530000000000 Fe
   0.3321590000000000    0.4725750000000000    0.9245470000000000 Fe
   0.1680700000000000    0.1885360000000000    0.2310250000000000 Fe
   0.3312080000000000    0.8634340000000000    0.5933310000000001 Fe
   0.2472450000000000    0.1417100000000000    0.4066650000000000 P
   0.2434250000000000    0.8061700000000001    0.7755110000000000 P
   0.2506370000000000    0.5471900000000000    0.0705750000000000 P
   0.7506370000000000    0.4528100000000000    0.4294250000000000 P
   0.7434250000000000    0.1938300000000000    0.7244890000000000 P
   0.7472450000000000    0.8582900000000000    0.0933350000000000 P
   0.2527550000000000    0.1417100000000000    0.9066650000000001 P
   0.2565750000000000    0.8061700000000001    0.2755110000000000 P
   0.2493630000000000    0.5471900000000000    0.5705750000000001 P
   0.7493630000000000    0.4528100000000000    0.9294249999999999 P
   0.7565750000000000    0.1938300000000000    0.2244890000000000 P
   0.7527550000000000    0.8582900000000000    0.5933349999999999 P
   0.4239930000000000    0.0768840000000000    0.3941230000000000 O
   0.8870910000000000    0.9211270000000000    0.6369020000000000 O
   0.3848280000000000    0.7370300000000000    0.8468450000000000 O
   0.2079420000000000    0.0729920000000000    0.5048200000000000 O
   0.7982870000000000    0.5732140000000000    0.9671660000000000 O
   0.7404220000000000    0.2849960000000000    0.2804710000000000 O
   0.2488860000000000    0.4354000000000000    0.1715960000000000 O
   0.0701740000000000    0.7616760000000000    0.8251910000000000 O
   0.4298880000000000    0.6290450000000000    0.0367940000000000 O
   0.2564090000000000    0.0015400000000000    0.7096060000000000 O
   0.1223670000000000    0.6986540000000000    0.0414540000000000 O
   0.2380320000000000    0.3426750000000000    0.3613720000000000 O
   0.7380320000000000    0.6573250000000000    0.1386280000000000 O
   0.6223670000000000    0.3013460000000000    0.4585460000000000 O
   0.7564090000000000    0.9984600000000000    0.7903940000000000 O
   0.9298880000000000    0.3709550000000000    0.4632060000000000 O
   0.5701740000000000    0.2383240000000000    0.6748090000000000 O
   0.7488860000000001    0.5646000000000000    0.3284040000000000 O
   0.2404220000000000    0.7150040000000000    0.2195290000000000 O
   0.2982870000000000    0.4267860000000000    0.5328340000000000 O
   0.7079420000000000    0.9270080000000001    0.9951800000000000 O
   0.8848279999999999    0.2629700000000000    0.6531550000000000 O
   0.3870910000000000    0.0788730000000000    0.8630980000000000 O
   0.9239930000000000    0.9231160000000000    0.1058770000000000 O
   0.0760070000000000    0.0768840000000000    0.8941230000000000 O
   0.6129090000000000    0.9211270000000000    0.1369020000000000 O
   0.1151720000000000    0.7370300000000000    0.3468450000000000 O
   0.2920580000000000    0.0729920000000000    0.0048200000000000 O
   0.7017130000000000    0.5732140000000000    0.4671660000000000 O
   0.7595780000000000    0.2849960000000000    0.7804710000000000 O
   0.2511140000000000    0.4354000000000000    0.6715960000000000 O
   0.4298260000000000    0.7616760000000000    0.3251910000000000 O
   0.0701120000000000    0.6290450000000000    0.5367940000000000 O
   0.2435910000000000    0.0015400000000000    0.2096060000000000 O
   0.3776330000000000    0.6986540000000000    0.5414540000000000 O
   0.2619680000000000    0.3426750000000000    0.8613720000000000 O
   0.7619680000000000    0.6573250000000000    0.6386280000000000 O
   0.7435910000000000    0.9984600000000000    0.2903940000000000 O
   0.8776330000000000    0.3013460000000000    0.9585460000000000 O
   0.5701120000000000    0.3709550000000000    0.9632060000000000 O
   0.9298260000000000    0.2383240000000000    0.1748090000000000 O
   0.7511139999999999    0.5646000000000000    0.8284040000000000 O
   0.2595780000000000    0.7150040000000000    0.7195290000000000 O
   0.2017130000000000    0.4267860000000000    0.0328340000000000 O
   0.7920580000000000    0.9270080000000001    0.4951800000000000 O
   0.6151720000000001    0.2629700000000000    0.1531550000000000 O
   0.1129090000000000    0.0788730000000000    0.3630980000000000 O
   0.5760070000000000    0.9231160000000000    0.6058770000000000 O
