Li4 Fe4 P4 O16
1.0
   5.1585330000000003   -0.0172290000000000    0.1741480000000000
  -2.3162039999999999    4.3103199999999999    9.3972850000000001
   0.0306750000000000   -8.9965469999999996    0.2224210000000000
Li Fe P O
4 4 4 16
direct
   0.1177610000000000    0.2360820000000000    0.1209350000000000 Li
   0.6181990000000001    0.2359990000000000    0.6211360000000000 Li
   0.8741340000000000    0.7346270000000000    0.8589570000000000 Li
   0.3743040000000000    0.7349150000000000    0.3591980000000000 Li
   0.5659600000000000    0.1187410000000000    0.2365140000000000 Fe
   0.8254400000000000    0.6167130000000000    0.1409140000000000 Fe
   0.0673960000000000    0.1183190000000000    0.7358980000000001 Fe
   0.3254900000000000    0.6169380000000000    0.6411710000000000 Fe
   0.8820050000000000    0.7603370000000000    0.5401800000000000 P
   0.3830310000000000    0.7601010000000000    0.0401580000000000 P
   0.1232170000000000    0.2611830000000000    0.4691850000000000 P
   0.6236560000000000    0.2606770000000000    0.9687810000000000 P
   0.7176220000000000    0.6991760000000000    0.6526660000000000 O
   0.2178290000000000    0.6994990000000000    0.1527690000000000 O
   0.7222400000000000    0.7094340000000000    0.3746710000000000 O
   0.2225440000000000    0.7100120000000000    0.8749770000000000 O
   0.9355460000000000    0.9200270000000000    0.6192240000000000 O
   0.4413570000000000    0.9197230000000000    0.1196880000000000 O
   0.8199330000000000    0.1977400000000000    0.4367580000000000 O
   0.3198640000000000    0.1981930000000000    0.9363840000000000 O
   0.1455760000000000    0.7059830000000000    0.5122280000000000 O
   0.6451650000000000    0.7044690000000000    0.0111140000000000 O
   0.1612830000000000    0.4199090000000000    0.5578600000000000 O
   0.6624180000000000    0.4195040000000000    0.0572210000000000 O
   0.2483070000000000    0.1979160000000000    0.5746340000000000 O
   0.7476260000000000    0.1974700000000000    0.0747630000000000 O
   0.2560280000000000    0.2227990000000000    0.3057920000000000 O
   0.7554870000000000    0.2211580000000000    0.8050389999999999 O
