Li4 Fe4 P4 O16
1.0
   1.3908119999999999    4.0753579999999996    2.5496010000000000
   7.1970799999999997   -4.2425730000000001    2.5463800000000001
   1.3938029999999999    4.0738770000000004   -7.6481649999999997
Li Fe P O
4 4 4 16
direct
   0.0238980000000000    0.5050650000000000    0.4733620000000000 Li
   0.5238860000000000    0.5050780000000000    0.9733680000000000 Li
   0.9681530000000000    0.0048660000000000    0.0286960000000000 Li
   0.4681240000000000    0.0048560000000000    0.5287010000000000 Li
   0.9747530000000000    0.2491440000000000    0.7769960000000000 Fe
   0.5264680000000000    0.7492100000000000    0.7241490000000000 Fe
   0.4747580000000000    0.2491030000000000    0.2770540000000000 Fe
   0.0264860000000000    0.7491650000000000    0.2241180000000000 Fe
   0.9776480000000000    0.1263270000000000    0.3980080000000000 P
   0.4776480000000000    0.1263540000000000    0.8980160000000000 P
   0.5216370000000000    0.6264070000000000    0.3540510000000000 P
   0.0216350000000000    0.6264240000000000    0.8540520000000000 P
   0.3015690000000000    0.1496210000000000    0.0478520000000000 O
   0.8015409999999999    0.1496070000000000    0.5478300000000000 O
   0.6464880000000000    0.6498040000000000    0.2027140000000000 O
   0.1464780000000000    0.6498060000000000    0.7027080000000000 O
   0.7914230000000000    0.0967350000000000    0.2453700000000000 O
   0.2914050000000000    0.0967580000000000    0.7453750000000000 O
   0.2143740000000000    0.5971610000000001    0.3225820000000000 O
   0.7143670000000000    0.5971870000000000    0.8226040000000000 O
   0.1593690000000000    0.2813180000000000    0.4288080000000000 O
   0.6593800000000000    0.2813400000000000    0.9287980000000000 O
   0.0817870000000000    0.7813010000000000    0.0069550000000000 O
   0.5817369999999999    0.7812900000000000    0.5069530000000000 O
   0.6406710000000000    0.4777170000000000    0.3885510000000000 O
   0.1406630000000000    0.4777280000000000    0.8885440000000000 O
   0.1635240000000000    0.9777690000000000    0.3658890000000000 O
   0.6635360000000000    0.9777910000000000    0.8658900000000000 O
