Li2 Fe2 P2 O8
1.0
   4.4682320000000004    2.5713680000000001    0.0000000000000000
  -4.4682320000000004    2.5713680000000001    0.0000000000000000
   0.0000000000000000    0.6518160000000000    8.1773869999999995
Li Fe P O
2 2 2 8
direct
   0.8115440000000000    0.9660530000000001    0.0367410000000000 Li
   0.9660530000000001    0.8115440000000000    0.5367410000000000 Li
   0.6555830000000000    0.2504670000000000    0.7037420000000000 Fe
   0.2504670000000000    0.6555830000000000    0.2037420000000000 Fe
   0.6343259999999999    0.3217470000000000    0.2946040000000000 P
   0.3217470000000000    0.6343259999999999    0.7946040000000000 P
   0.3245880000000000    0.0278370000000000    0.3125780000000000 O
   0.7864460000000000    0.4008250000000000    0.4595600000000000 O
   0.8533280000000000    0.2825740000000000    0.1749670000000000 O
   0.6086350000000000    0.5915110000000000    0.2264090000000000 O
   0.0278370000000000    0.3245880000000000    0.8125780000000000 O
   0.4008250000000000    0.7864460000000000    0.9595600000000000 O
   0.2825740000000000    0.8533280000000000    0.6749670000000000 O
   0.5915110000000000    0.6086350000000000    0.7264090000000000 O
