Mo72 S144
1.0
   6.3259619999999996    0.0000000000000000    0.0000000000000000
   0.0000000000000000   26.0419300000000007    0.0000000000000000
   0.0000000000000000    0.0000000000000000   43.4765170000000012
Mo S
72 144
direct
   0.0000000000000000    0.0000000000000000    0.0530330000000000 Mo
   0.0000000000000000    0.5000000000000000    0.0530330000000000 Mo
   0.5000000000000000    0.0000000000000000    0.0530330000000000 Mo
   0.5000000000000000    0.5000000000000000    0.0530330000000000 Mo
   0.0000000000000000    0.2500000000000000    0.8831810000000000 Mo
   0.0000000000000000    0.7500000000000000    0.8831810000000000 Mo
   0.5000000000000000    0.2500000000000000    0.8831810000000000 Mo
   0.5000000000000000    0.7500000000000000    0.8831810000000000 Mo
   0.2500000000000000    0.2500000000000000    0.9469669999999999 Mo
   0.2500000000000000    0.7500000000000000    0.9469669999999999 Mo
   0.7499999999999999    0.2500000000000000    0.9469669999999999 Mo
   0.7499999999999999    0.7500000000000000    0.9469669999999999 Mo
   0.0000000000000000    0.0000000000000000    0.9253260000000000 Mo
   0.0000000000000000    0.5000000000000000    0.9253260000000000 Mo
   0.5000000000000000    0.0000000000000000    0.9253260000000000 Mo
   0.5000000000000000    0.5000000000000000    0.9253260000000000 Mo
   0.0000000000000000    0.2500000000000000    0.0107830000000000 Mo
   0.0000000000000000    0.7500000000000000    0.0107830000000000 Mo
   0.5000000000000000    0.2500000000000000    0.0107830000000000 Mo
   0.5000000000000000    0.7500000000000000    0.0107830000000000 Mo
   0.2500000000000000    0.2500000000000000    0.8195590000000000 Mo
   0.2500000000000000    0.7500000000000000    0.8195590000000000 Mo
   0.7499999999999999    0.2500000000000000    0.8195590000000000 Mo
   0.7499999999999999    0.7500000000000000    0.8195590000000000 Mo
   0.0000000000000000    0.2500000000000000    0.1386450000000000 Mo
   0.0000000000000000    0.7500000000000000    0.1386450000000000 Mo
   0.5000000000000000    0.2500000000000000    0.1386450000000000 Mo
   0.5000000000000000    0.7500000000000000    0.1386450000000000 Mo
   0.0000000000000000    0.0000000000000000    0.7969309999999998 Mo
   0.0000000000000000    0.5000000000000000    0.7969309999999998 Mo
   0.5000000000000000    0.0000000000000000    0.7969309999999998 Mo
   0.5000000000000000    0.5000000000000000    0.7969309999999998 Mo
   0.0000000000000000    0.0000000000000000    0.1804410000000000 Mo
   0.0000000000000000    0.5000000000000000    0.1804410000000000 Mo
   0.5000000000000000    0.0000000000000000    0.1804410000000000 Mo
   0.5000000000000000    0.5000000000000000    0.1804410000000000 Mo
   0.2500000000000000    0.0000000000000000    0.1168190000000000 Mo
   0.2500000000000000    0.5000000000000000    0.1168190000000000 Mo
   0.7499999999999999    0.0000000000000000    0.1168190000000000 Mo
   0.7499999999999999    0.5000000000000000    0.1168190000000000 Mo
   0.2500000000000000    0.2500000000000000    0.2030690000000000 Mo
   0.2500000000000000    0.7500000000000000    0.2030690000000000 Mo
   0.7499999999999999    0.2500000000000000    0.2030690000000000 Mo
   0.7499999999999999    0.7500000000000000    0.2030690000000000 Mo
   0.2500000000000000    0.0000000000000000    0.9892169999999999 Mo
   0.2500000000000000    0.5000000000000000    0.9892169999999999 Mo
   0.7499999999999999    0.0000000000000000    0.9892169999999999 Mo
   0.7499999999999999    0.5000000000000000    0.9892169999999999 Mo
   0.0000000000000000    0.2500000000000000    0.2627889999999999 Mo
   0.0000000000000000    0.7500000000000000    0.2627889999999999 Mo
   0.5000000000000000    0.2500000000000000    0.2627889999999999 Mo
   0.5000000000000000    0.7500000000000000    0.2627889999999999 Mo
   0.2500000000000000    0.0000000000000000    0.8613549999999999 Mo
   0.2500000000000000    0.5000000000000000    0.8613549999999999 Mo
   0.7499999999999999    0.0000000000000000    0.8613549999999999 Mo
   0.7499999999999999    0.5000000000000000    0.8613549999999999 Mo
   0.2500000000000000    0.2500000000000000    0.0746740000000000 Mo
   0.2500000000000000    0.7500000000000000    0.0746740000000000 Mo
   0.7499999999999999    0.2500000000000000    0.0746740000000000 Mo
   0.7499999999999999    0.7500000000000000    0.0746740000000000 Mo
   0.0000000000000000    0.2500000000000000    0.7557199999999999 Mo
   0.0000000000000000    0.7500000000000000    0.7557199999999999 Mo
   0.5000000000000000    0.2500000000000000    0.7557199999999999 Mo
   0.5000000000000000    0.7500000000000000    0.7557199999999999 Mo
   0.2500000000000000    0.0000000000000000    0.7372109999999999 Mo
   0.2500000000000000    0.5000000000000000    0.7372109999999999 Mo
   0.7499999999999999    0.0000000000000000    0.7372109999999999 Mo
   0.7499999999999999    0.5000000000000000    0.7372109999999999 Mo
   0.2500000000000000    0.0000000000000000    0.2442800000000000 Mo
   0.2500000000000000    0.5000000000000000    0.2442800000000000 Mo
   0.7499999999999999    0.0000000000000000    0.2442800000000000 Mo
   0.7499999999999999    0.5000000000000000    0.2442800000000000 Mo
   0.2500000000000000    0.1921215000000000    0.7331699999999999 S
   0.2500000000000000    0.6921215000000001    0.7331699999999999 S
   0.7499999999999999    0.1921215000000000    0.7331699999999999 S
   0.7499999999999999    0.6921215000000001    0.7331699999999999 S
   0.2500000000000000    0.0602295000000000    0.0744110000000000 S
   0.2500000000000000    0.5602295000000000    0.0744110000000000 S
   0.7499999999999999    0.0602295000000000    0.0744110000000000 S
   0.7499999999999999    0.5602295000000000    0.0744110000000000 S
   0.0000000000000000    0.3099840000000000    0.1812410000000000 S
   0.0000000000000000    0.8099840000000000    0.1812410000000000 S
   0.5000000000000000    0.3099840000000000    0.1812410000000000 S
   0.5000000000000000    0.8099840000000000    0.1812410000000000 S
   0.0000000000000000    0.0601275000000000    0.8827690000000000 S
   0.0000000000000000    0.5601275000000000    0.8827690000000000 S
   0.5000000000000000    0.0601275000000000    0.8827690000000000 S
   0.5000000000000000    0.5601275000000000    0.8827690000000000 S
   0.2500000000000000    0.0599840000000000    0.8187589999999999 S
   0.2500000000000000    0.5599840000000000    0.8187589999999999 S
   0.7499999999999999    0.0599840000000000    0.8187589999999999 S
   0.7499999999999999    0.5599840000000000    0.8187589999999999 S
   0.2500000000000000    0.1897175000000000    0.8618139999999999 S
   0.2500000000000000    0.6897175000000001    0.8618139999999999 S
   0.7499999999999999    0.1897175000000000    0.8618139999999999 S
   0.7499999999999999    0.6897175000000001    0.8618139999999999 S
   0.2500000000000000    0.4397705000000001    0.0744110000000000 S
   0.2500000000000000    0.9397705000000001    0.0744110000000000 S
   0.7499999999999999    0.4397705000000001    0.0744110000000000 S
   0.7499999999999999    0.9397705000000001    0.0744110000000000 S
   0.0000000000000000    0.0578785000000000    0.2668300000000000 S
   0.0000000000000000    0.5578785000000001    0.2668300000000000 S
   0.5000000000000000    0.0578785000000000    0.2668300000000000 S
   0.5000000000000000    0.5578785000000001    0.2668300000000000 S
   0.0000000000000000    0.4398725000000001    0.8827690000000000 S
   0.0000000000000000    0.9398725000000001    0.8827690000000000 S
   0.5000000000000000    0.4398725000000001    0.8827690000000000 S
   0.5000000000000000    0.9398725000000001    0.8827690000000000 S
   0.0000000000000000    0.3102295000000000    0.9255889999999999 S
   0.0000000000000000    0.8102295000000000    0.9255889999999999 S
   0.5000000000000000    0.3102295000000000    0.9255889999999999 S
   0.5000000000000000    0.8102295000000000    0.9255889999999999 S
   0.2500000000000000    0.0601135000000000    0.2019500000000000 S
   0.2500000000000000    0.5601135000000000    0.2019500000000000 S
   0.7499999999999999    0.0601135000000000    0.2019500000000000 S
   0.7499999999999999    0.5601135000000000    0.2019500000000000 S
   0.2500000000000000    0.3102825000000001    0.8618139999999999 S
   0.2500000000000000    0.8102825000000001    0.8618139999999999 S
   0.7499999999999999    0.3102825000000001    0.8618139999999999 S
   0.7499999999999999    0.8102825000000001    0.8618139999999999 S
   0.2500000000000000    0.3078785000000000    0.7331699999999999 S
   0.2500000000000000    0.8078785000000001    0.7331699999999999 S
   0.7499999999999999    0.3078785000000000    0.7331699999999999 S
   0.7499999999999999    0.8078785000000001    0.7331699999999999 S
   0.2500000000000000    0.1898725000000000    0.1172310000000000 S
   0.2500000000000000    0.6898725000000000    0.1172310000000000 S
   0.7499999999999999    0.1898725000000000    0.1172310000000000 S
   0.7499999999999999    0.6898725000000000    0.1172310000000000 S
   0.0000000000000000    0.1900160000000000    0.1812410000000000 S
   0.0000000000000000    0.6900160000000000    0.1812410000000000 S
   0.5000000000000000    0.1900160000000000    0.1812410000000000 S
   0.5000000000000000    0.6900160000000000    0.1812410000000000 S
   0.2500000000000000    0.3102330000000000    0.9894079999999998 S
   0.2500000000000000    0.8102330000000001    0.9894079999999998 S
   0.7499999999999999    0.3102330000000000    0.9894079999999998 S
   0.7499999999999999    0.8102330000000001    0.9894079999999998 S
   0.0000000000000000    0.4421215000000001    0.2668300000000000 S
   0.0000000000000000    0.9421215000000002    0.2668300000000000 S
   0.5000000000000000    0.4421215000000001    0.2668300000000000 S
   0.5000000000000000    0.9421215000000002    0.2668300000000000 S
   0.2500000000000000    0.1872830000000000    0.2457960000000000 S
   0.2500000000000000    0.6872830000000001    0.2457960000000000 S
   0.7499999999999999    0.1872830000000000    0.2457960000000000 S
   0.7499999999999999    0.6872830000000001    0.2457960000000000 S
   0.0000000000000000    0.0602330000000000    0.0105920000000000 S
   0.0000000000000000    0.5602330000000001    0.0105920000000000 S
   0.5000000000000000    0.0602330000000000    0.0105920000000000 S
   0.5000000000000000    0.5602330000000001    0.0105920000000000 S
   0.2500000000000000    0.0602190000000000    0.9467380000000000 S
   0.2500000000000000    0.5602190000000000    0.9467380000000000 S
   0.7499999999999999    0.0602190000000000    0.9467380000000000 S
   0.7499999999999999    0.5602190000000000    0.9467380000000000 S
   0.0000000000000000    0.0602825000000000    0.1381860000000000 S
   0.0000000000000000    0.5602825000000000    0.1381860000000000 S
   0.5000000000000000    0.0602825000000000    0.1381860000000000 S
   0.5000000000000000    0.5602825000000000    0.1381860000000000 S
   0.0000000000000000    0.4372830000000000    0.7542039999999999 S
   0.0000000000000000    0.9372830000000001    0.7542039999999999 S
   0.5000000000000000    0.4372830000000000    0.7542039999999999 S
   0.5000000000000000    0.9372830000000001    0.7542039999999999 S
   0.2500000000000000    0.3127170000000001    0.2457960000000000 S
   0.2500000000000000    0.8127170000000001    0.2457960000000000 S
   0.7499999999999999    0.3127170000000001    0.2457960000000000 S
   0.7499999999999999    0.8127170000000001    0.2457960000000000 S
   0.2500000000000000    0.1897670000000000    0.9894079999999998 S
   0.2500000000000000    0.6897670000000000    0.9894079999999998 S
   0.7499999999999999    0.1897670000000000    0.9894079999999998 S
   0.7499999999999999    0.6897670000000000    0.9894079999999998 S
   0.2500000000000000    0.3101275000000000    0.1172310000000000 S
   0.2500000000000000    0.8101275000000000    0.1172310000000000 S
   0.7499999999999999    0.3101275000000000    0.1172310000000000 S
   0.7499999999999999    0.8101275000000000    0.1172310000000000 S
   0.0000000000000000    0.1898865000000000    0.7980500000000000 S
   0.0000000000000000    0.6898865000000001    0.7980500000000000 S
   0.5000000000000000    0.1898865000000000    0.7980500000000000 S
   0.5000000000000000    0.6898865000000001    0.7980500000000000 S
   0.0000000000000000    0.1897705000000000    0.9255889999999999 S
   0.0000000000000000    0.6897705000000001    0.9255889999999999 S
   0.5000000000000000    0.1897705000000000    0.9255889999999999 S
   0.5000000000000000    0.6897705000000001    0.9255889999999999 S
   0.0000000000000000    0.4397670000000000    0.0105920000000000 S
   0.0000000000000000    0.9397670000000001    0.0105920000000000 S
   0.5000000000000000    0.4397670000000000    0.0105920000000000 S
   0.5000000000000000    0.9397670000000001    0.0105920000000000 S
   0.2500000000000000    0.4400160000000000    0.8187589999999999 S
   0.2500000000000000    0.9400160000000001    0.8187589999999999 S
   0.7499999999999999    0.4400160000000000    0.8187589999999999 S
   0.7499999999999999    0.9400160000000001    0.8187589999999999 S
   0.0000000000000000    0.3102190000000000    0.0532620000000000 S
   0.0000000000000000    0.8102190000000001    0.0532620000000000 S
   0.5000000000000000    0.3102190000000000    0.0532620000000000 S
   0.5000000000000000    0.8102190000000001    0.0532620000000000 S
   0.2500000000000000    0.4397810000000000    0.9467380000000000 S
   0.2500000000000000    0.9397810000000001    0.9467380000000000 S
   0.7499999999999999    0.4397810000000000    0.9467380000000000 S
   0.7499999999999999    0.9397810000000001    0.9467380000000000 S
   0.0000000000000000    0.1897810000000000    0.0532620000000000 S
   0.0000000000000000    0.6897810000000001    0.0532620000000000 S
   0.5000000000000000    0.1897810000000000    0.0532620000000000 S
   0.5000000000000000    0.6897810000000001    0.0532620000000000 S
   0.0000000000000000    0.4397175000000000    0.1381860000000000 S
   0.0000000000000000    0.9397175000000001    0.1381860000000000 S
   0.5000000000000000    0.4397175000000000    0.1381860000000000 S
   0.5000000000000000    0.9397175000000001    0.1381860000000000 S
   0.2500000000000000    0.4398865000000000    0.2019500000000000 S
   0.2500000000000000    0.9398865000000002    0.2019500000000000 S
   0.7499999999999999    0.4398865000000000    0.2019500000000000 S
   0.7499999999999999    0.9398865000000002    0.2019500000000000 S
   0.0000000000000000    0.0627170000000000    0.7542039999999999 S
   0.0000000000000000    0.5627170000000000    0.7542039999999999 S
   0.5000000000000000    0.0627170000000000    0.7542039999999999 S
   0.5000000000000000    0.5627170000000000    0.7542039999999999 S
   0.0000000000000000    0.3101135000000000    0.7980500000000000 S
   0.0000000000000000    0.8101135000000000    0.7980500000000000 S
   0.5000000000000000    0.3101135000000000    0.7980500000000000 S
   0.5000000000000000    0.8101135000000000    0.7980500000000000 S
