C8 O16
1.0
  -4.6647140000000000    4.6647140000000000    3.8799980000000001
   4.6647140000000000   -4.6647140000000000    3.8799980000000001
   4.6647140000000000    4.6647140000000000   -3.8799980000000001
C O
8 16
direct
   0.2419160000000000    0.3764490000000000    0.4888290000000000 C
   0.8876200000000000    0.7530870000000000    0.5111710000000000 C
   0.6264490000000000    0.6376200000000000    0.6345330000000000 C
   0.0030870000000000    0.9919160000000000    0.3654670000000000 C
   0.0080840000000000    0.3735510000000000    0.0111710000000000 C
   0.3623800000000000    0.9969130000000000    0.9888290000000000 C
   0.6235510000000000    0.1123800000000000    0.8654670000000000 C
   0.2469130000000000    0.7580840000000000    0.1345330000000000 C
   0.4269020000000000    0.5440560000000000    0.4782420000000000 O
   0.0658140000000000    0.9486599999999999    0.5217580000000001 O
   0.7940560000000000    0.8158140000000000    0.6171540000000000 O
   0.1986600000000000    0.1769020000000000    0.3828460000000000 O
   0.8230980000000000    0.2059440000000000    0.0217580000000000 O
   0.1841860000000000    0.8013400000000001    0.9782419999999999 O
   0.4559440000000000    0.9341860000000000    0.8828460000000000 O
   0.0513400000000000    0.5730980000000000    0.1171540000000000 O
   0.1397010000000000    0.4116560000000000    0.5685010000000000 O
   0.8431550000000000    0.5712000000000000    0.4314990000000000 O
   0.6616560000000000    0.5931550000000000    0.7719549999999999 O
   0.8212000000000000    0.8897010000000000    0.2280450000000000 O
   0.1102990000000000    0.3383440000000000    0.9314990000000000 O
   0.4068450000000000    0.1788000000000000    0.0685010000000000 O
   0.5883440000000000    0.1568450000000000    0.7280450000000001 O
   0.4288000000000000    0.8602990000000000    0.2719550000000000 O
