H24 O12                                 
   1.0000000000000000     
     7.5042207699999999   -0.0000000100000000    0.0000000000000000
    -3.7521108999999999    6.4988451600000001   -0.0000000000000000
    -0.0000000000000000   -0.0000000000000000    7.0626434800000002
  H/              O/            
              24              12
Direct
  0.3360172200000022  0.3360172200000022  0.6960308700000013
  0.6639827799999978  0.0000000000000000  0.6960308700000013
  0.0000000000000000  0.6639827799999978  0.6960308700000013
  0.6639827799999978  0.6639827799999978  0.1960308700000013
  0.3360172200000022  0.0000000000000000  0.1960308700000013
  0.0000000000000000  0.3360172200000022  0.1960308700000013
  0.4604013800000004  0.4604013800000004  0.5113929500000012
  0.5395986199999996  0.0000000000000000  0.5113929500000012
  0.0000000000000000  0.5395986199999996  0.5113929500000012
  0.5395986199999996  0.5395986199999996  0.0113929500000012
  0.4604013800000004  0.0000000000000000  0.0113929500000012
  0.0000000000000000  0.4604013800000004  0.0113929500000012
  0.7929783000000015  0.6692429200000021  0.4785063599999972
  0.3307570799999979  0.1237363799999969  0.4785063599999972
  0.8762636200000031  0.2070207000000011  0.4785063599999972
  0.6692429200000021  0.7929783000000015  0.4785063599999972
  0.1237363799999969  0.3307570799999979  0.4785063599999972
  0.2070207000000011  0.8762636200000031  0.4785063599999972
  0.2070207000000011  0.3307570799999979  0.9785063599999972
  0.6692429200000021  0.8762636200000031  0.9785063599999972
  0.1237363799999969  0.7929783000000015  0.9785063599999972
  0.3307570799999979  0.2070207000000011  0.9785063599999972
  0.8762636200000031  0.6692429200000021  0.9785063599999972
  0.7929783000000015  0.1237363799999969  0.9785063599999972
  0.3342312600000028  0.3342312600000028  0.5551569100000009
  0.6657687399999972  0.0000000000000000  0.5551569100000009
  0.0000000000000000  0.6657687399999972  0.5551569100000009
  0.6657687399999972  0.6657687399999972  0.0551569100000009
  0.3342312600000028  0.0000000000000000  0.0551569100000009
  0.0000000000000000  0.3342312600000028  0.0551569100000009
  0.6674142299999986  0.6674142299999986  0.4304065600000015
  0.3325857700000014  0.0000000000000000  0.4304065600000015
  0.0000000000000000  0.3325857700000014  0.4304065600000015
  0.3325857700000014  0.3325857700000014  0.9304065600000015
  0.6674142299999986  0.0000000000000000  0.9304065600000015
  0.0000000000000000  0.6674142299999986  0.9304065600000015

  0.00000000E+00  0.00000000E+00  0.00000000E+00
  0.00000000E+00  0.00000000E+00  0.00000000E+00
  0.00000000E+00  0.00000000E+00  0.00000000E+00
  0.00000000E+00  0.00000000E+00  0.00000000E+00
  0.00000000E+00  0.00000000E+00  0.00000000E+00
  0.00000000E+00  0.00000000E+00  0.00000000E+00
  0.00000000E+00  0.00000000E+00  0.00000000E+00
  0.00000000E+00  0.00000000E+00  0.00000000E+00
  0.00000000E+00  0.00000000E+00  0.00000000E+00
  0.00000000E+00  0.00000000E+00  0.00000000E+00
  0.00000000E+00  0.00000000E+00  0.00000000E+00
  0.00000000E+00  0.00000000E+00  0.00000000E+00
  0.00000000E+00  0.00000000E+00  0.00000000E+00
  0.00000000E+00  0.00000000E+00  0.00000000E+00
  0.00000000E+00  0.00000000E+00  0.00000000E+00
  0.00000000E+00  0.00000000E+00  0.00000000E+00
  0.00000000E+00  0.00000000E+00  0.00000000E+00
  0.00000000E+00  0.00000000E+00  0.00000000E+00
  0.00000000E+00  0.00000000E+00  0.00000000E+00
  0.00000000E+00  0.00000000E+00  0.00000000E+00
  0.00000000E+00  0.00000000E+00  0.00000000E+00
  0.00000000E+00  0.00000000E+00  0.00000000E+00
  0.00000000E+00  0.00000000E+00  0.00000000E+00
  0.00000000E+00  0.00000000E+00  0.00000000E+00
  0.00000000E+00  0.00000000E+00  0.00000000E+00
  0.00000000E+00  0.00000000E+00  0.00000000E+00
  0.00000000E+00  0.00000000E+00  0.00000000E+00
  0.00000000E+00  0.00000000E+00  0.00000000E+00
  0.00000000E+00  0.00000000E+00  0.00000000E+00
  0.00000000E+00  0.00000000E+00  0.00000000E+00
  0.00000000E+00  0.00000000E+00  0.00000000E+00
  0.00000000E+00  0.00000000E+00  0.00000000E+00
  0.00000000E+00  0.00000000E+00  0.00000000E+00
  0.00000000E+00  0.00000000E+00  0.00000000E+00
  0.00000000E+00  0.00000000E+00  0.00000000E+00
  0.00000000E+00  0.00000000E+00  0.00000000E+00
