unknown system                          
           1
     7.504221   -0.000000    0.000000
    -3.752111    6.498845   -0.000000
    -0.000000   -0.000000    7.062643
   H    O 
    24    12
Direct configuration=     1
   0.33601722  0.33601722  0.69603087
   0.66398278  0.00000000  0.69603087
   0.00000000  0.66398278  0.69603087
   0.66398278  0.66398278  0.19603087
   0.33601722  0.00000000  0.19603087
   0.00000000  0.33601722  0.19603087
   0.46040138  0.46040138  0.51139295
   0.53959862  0.00000000  0.51139295
   0.00000000  0.53959862  0.51139295
   0.53959862  0.53959862  0.01139295
   0.46040138  0.00000000  0.01139295
   0.00000000  0.46040138  0.01139295
   0.79297830  0.66924292  0.47850636
   0.33075708  0.12373638  0.47850636
   0.87626362  0.20702070  0.47850636
   0.66924292  0.79297830  0.47850636
   0.12373638  0.33075708  0.47850636
   0.20702070  0.87626362  0.47850636
   0.20702070  0.33075708  0.97850636
   0.66924292  0.87626362  0.97850636
   0.12373638  0.79297830  0.97850636
   0.33075708  0.20702070  0.97850636
   0.87626362  0.66924292  0.97850636
   0.79297830  0.12373638  0.97850636
   0.33423126  0.33423126  0.55515691
   0.66576874  0.00000000  0.55515691
   0.00000000  0.66576874  0.55515691
   0.66576874  0.66576874  0.05515691
   0.33423126  0.00000000  0.05515691
   0.00000000  0.33423126  0.05515691
   0.66741423  0.66741423  0.43040656
   0.33258577  0.00000000  0.43040656
   0.00000000  0.33258577  0.43040656
   0.33258577  0.33258577  0.93040656
   0.66741423  0.00000000  0.93040656
   0.00000000  0.66741423  0.93040656
