Mo2 S4
1.0
  -2.8081100000000001    2.8081100000000001    5.1523149999999998
   2.8081100000000001   -2.8081100000000001    5.1523149999999998
   2.8081100000000001    2.8081100000000001   -5.1523149999999998
Mo S
2 4
direct
   0.7500000000000000    0.2500000000000000    0.5000000000000000 Mo
   0.0000000000000000    0.0000000000000000    0.0000000000000000 Mo
   0.8750000000000000    0.9066080000000000    0.5316080000000000 S
   0.0933920000000000    0.6250000000000000    0.9683920000000000 S
   0.3750000000000000    0.3433920000000000    0.4683920000000000 S
   0.6566080000000000    0.1250000000000000    0.0316080000000000 S
